COMMENT
    1.000000000
  12.000000000000000    0.000000000000000    0.000000000000000
   0.000000000000000   12.000000000000000    0.000000000000000
   0.000000000000000    0.000000000000000   12.000000000000000
  C  O
  28  56
Direct
   0.405103333333333    0.610441666666667    0.307340833333333
   0.996258333333333    0.801050833333333    0.783117500000000
   0.400151666666667    0.183460000000000    0.439482500000000
   0.541422500000000    0.451465833333333    0.683646666666667
   0.901750000000000    0.837125000000000    0.072093916666667
   0.993216666666667    0.197210833333333    0.051659250000000
   0.152208333333333    0.507680833333333    0.987333333333333
   0.524356666666667    0.995108333333333    0.120733333333333
   0.510782500000000    0.036188583333333    0.750132500000000
   0.656439166666667    0.203917500000000    0.997283333333333
   0.689666666666667    0.153665833333333    0.390479166666667
   0.333151666666667    0.344475833333333    0.222402500000000
   0.771195833333333    0.434055833333333    0.230873333333333
   0.212817500000000    0.029256750000000    0.633939166666667
   0.550584166666667    0.578704166666667    0.012759583333333
   0.037297916666667    0.227766666666667    0.404016666666667
   0.797770000000000    0.575616666666667    0.572155833333333
   0.664431666666667    0.813721666666667    0.820686666666667
   0.082040916666667    0.622043333333333    0.406121666666667
   0.878791666666667    0.949000000000000    0.454015833333333
   0.190255000000000    0.970758333333333    0.241485000000000
   0.925558333333333    0.211031666666667    0.732774166666667
   0.353165000000000    0.754109166666667    0.621825833333333
   0.303265833333333    0.263914166666667    0.895691666666667
   0.189975000000000    0.424556666666667    0.619033333333333
   0.269450000000000    0.844300000000000    0.951483333333333
   0.667575000000000    0.752919166666667    0.345670833333333
   0.862800000000000    0.521385000000000    0.895583333333333
   0.440008333333333    0.569250000000000    0.386932500000000
   0.373886666666667    0.657201666666667    0.229945000000000
   0.928333333333333    0.857225000000000    0.744770833333333
   0.069401833333333    0.744042500000000    0.811043333333333
   0.366273333333333    0.094994166666667    0.416895000000000
   0.434878333333333    0.267590000000000    0.469337500000000
   0.597643333333333    0.377296666666667    0.711676666666667
   0.489713333333333    0.529076666666667    0.655170833333333
   0.891008333333333    0.931175000000000    0.058591333333333
   0.919175000000000    0.743344166666667    0.087446666666667
   0.008502666666667    0.144195000000000    0.974141666666667
   0.989566666666667    0.246764166666667    0.133540000000000
   0.208615000000000    0.541424166666667    0.917158333333333
   0.101189166666667    0.472541666666667    0.061800000000000
   0.587965000000000    0.963933333333333    0.185253333333333
   0.454670833333333    0.029554750000000    0.065206166666667
   0.463463333333333    0.039465000000000    0.834516666666667
   0.552525833333333    0.035241750000000    0.664258333333333
   0.591130833333333    0.270325000000000    0.971633333333333
   0.719080833333333    0.136029166666667    0.025705750000000
   0.692106666666667    0.149820833333333    0.292903333333333
   0.685080000000000    0.155760000000000    0.487571666666667
   0.241040833333333    0.348742500000000    0.252552500000000
   0.422819166666667    0.336279166666667    0.187252500000000
   0.823510000000000    0.476868333333333    0.162570833333333
   0.719615000000000    0.397187500000000    0.303151666666667
   0.221342500000000    0.090425000000000    0.708815833333333
   0.195756666666667    0.965308333333333    0.562866666666667
   0.507581666666667    0.543586666666667    0.934566666666667
   0.600387500000000    0.614979166666667    0.086615833333333
   0.951141666666667    0.273032500000000    0.408248333333333
   0.122781666666667    0.186838333333333    0.400969166666667
   0.766630000000000    0.485023333333333    0.566910000000000
   0.830745833333333    0.666193333333333    0.577527500000000
   0.737120000000000    0.834158333333333    0.881975000000000
   0.595747500000000    0.781903333333333    0.760997500000000
   0.123287500000000    0.693695000000000    0.458015000000000
   0.052020000000000    0.547345000000000    0.349871666666667
   0.860933333333333    0.968233333333333    0.545527500000000
   0.905258333333333    0.929308333333333    0.363661666666667
   0.164520000000000    0.039324833333333    0.177630833333333
   0.215425000000000    0.899408333333333    0.301320000000000
   0.019888750000000    0.199332500000000    0.714893333333333
   0.830680833333333    0.220868333333333    0.746799166666667
   0.321362500000000    0.725453333333333    0.707787500000000
   0.376518333333333    0.794083333333333    0.537192500000000
   0.256104166666667    0.205866666666667    0.956983333333333
   0.356126666666667    0.321036666666667    0.838925000000000
   0.262655833333333    0.383797500000000    0.569650833333333
   0.117235833333333    0.462309166666667    0.669402500000000
   0.216574166666667    0.923908333333333    0.938825000000000
   0.326497500000000    0.770890000000000    0.974550000000000
   0.708185000000000    0.686307500000000    0.289583333333333
   0.626623333333333    0.813857500000000    0.407721666666667
   0.847950000000000    0.614969166666667    0.906050000000000
   0.874658333333333    0.428180000000000    0.880575000000000
