109
Lattice="13.89768440882287 1.7e-15 1.2e-15 1.7e-15 13.89768440882286 1.9e-15 1.2e-15 1.9e-15 13.897684408822562" Properties=species:S:1:pos:R:3:forces:R:3 energy=-1670.7056059383347 stress="-0.0016830449558210567 5.3982593242834704e-17 5.522796765031097e-17 5.3982593242834704e-17 -0.001683044955807327 4.553213540815199e-17 5.522796765031097e-17 4.553213540815199e-17 -0.0016830449558093334" pbc="T T T"
Pu      -0.01526282      -0.01526282      -0.01526282       0.00003276       0.00003276       0.00003276
Pu       2.31628073       2.31628073      -0.24168486      -0.00000000      -0.00000000       0.00005431
Pu       2.31628073      -0.24168486       2.31628073      -0.00000000       0.00005431      -0.00000000
Pu      -0.24168486       2.31628073       2.31628073       0.00005431      -0.00000000      -0.00000000
Pu      -0.01526282      -0.01526282       4.64782429       0.00003276       0.00003276      -0.00003276
Pu       2.31628073       2.31628073       4.87424633      -0.00000000      -0.00000000      -0.00005431
Pu       2.31628073      -0.02392870       6.98043469      -0.00000000       0.00000030      -0.00000169
Pu      -0.02392870       2.31628073       6.98043469       0.00000030       0.00000000      -0.00000169
Pu      -0.01238354      -0.01238354       9.26512294       0.00001648       0.00001648       0.00000000
Pu       2.31628073       2.31628073       9.26512294      -0.00000000      -0.00000000       0.00000000
Pu       2.31628073      -0.02392870      11.54981119      -0.00000000       0.00000030       0.00000169
Pu      -0.02392870       2.31628073      11.54981119       0.00000030      -0.00000000       0.00000169
Pu      -0.01526282       4.64782429      -0.01526282       0.00003276      -0.00003276       0.00003276
Pu       2.31628073       6.98043469      -0.02392870      -0.00000000      -0.00000169       0.00000030
Pu       2.31628073       4.87424633       2.31628073      -0.00000000      -0.00005431      -0.00000000
Pu      -0.02392870       6.98043469       2.31628073       0.00000030      -0.00000169       0.00000000
Pu      -0.01526282       4.64782429       4.64782429       0.00003276      -0.00003276      -0.00003276
Pu       2.31628073       6.98043469       4.65649017       0.00000000      -0.00000169      -0.00000030
Pu       2.31628073       4.65649017       6.98043469       0.00000000      -0.00000030      -0.00000169
Pu      -0.00841700       6.95727518       6.95727518       0.00000627       0.00003262       0.00003262
Pu      -0.01238354       4.64494501       9.26512294       0.00001648      -0.00001648       0.00000000
Pu       2.31628073       6.95932401       9.26512294      -0.00000000       0.00000299      -0.00000000
Pu       2.31628073       4.65649017      11.54981119       0.00000000      -0.00000030       0.00000169
Pu      -0.00841700       6.95727518      11.57297070       0.00000627       0.00003262      -0.00003262
Pu      -0.01238354       9.26512294      -0.01238354       0.00001648       0.00000000       0.00001648
Pu       2.31628073      11.54981119      -0.02392870      -0.00000000       0.00000169       0.00000030
Pu       2.31628073       9.26512294       2.31628073      -0.00000000       0.00000000      -0.00000000
Pu      -0.02392870      11.54981119       2.31628073       0.00000030       0.00000169       0.00000000
Pu      -0.01238354       9.26512294       4.64494501       0.00001648      -0.00000000      -0.00001648
Pu       2.31628073      11.54981119       4.65649017      -0.00000000       0.00000169      -0.00000030
Pu       2.31628073       9.26512294       6.95932401      -0.00000000       0.00000000       0.00000299
Pu      -0.00841700      11.57297070       6.95727518       0.00000627      -0.00003262       0.00003262
Pu      -0.00570384       9.26512294       9.26512294       0.00000628       0.00000000       0.00000000
Pu       2.31628073      11.57092187       9.26512294      -0.00000000      -0.00000299       0.00000000
Pu       2.31628073       9.26512294      11.57092187      -0.00000000       0.00000000      -0.00000299
Pu      -0.00841700      11.57297070      11.57297070       0.00000627      -0.00003262      -0.00003262
Pu       4.64782429      -0.01526282      -0.01526282      -0.00003276       0.00003276       0.00003276
Pu       6.98043469       2.31628073      -0.02392870      -0.00000169      -0.00000000       0.00000030
Pu       6.98043469      -0.02392870       2.31628073      -0.00000169       0.00000030       0.00000000
Pu       4.87424633       2.31628073       2.31628073      -0.00005431      -0.00000000      -0.00000000
Pu       4.64782429      -0.01526282       4.64782429      -0.00003276       0.00003276      -0.00003276
Pu       6.98043469       2.31628073       4.65649017      -0.00000169       0.00000000      -0.00000030
Pu       6.95727518      -0.00841700       6.95727518       0.00003262       0.00000627       0.00003262
Pu       4.65649017       2.31628073       6.98043469      -0.00000030      -0.00000000      -0.00000169
Pu       4.64494501      -0.01238354       9.26512294      -0.00001648       0.00001648       0.00000000
Pu       6.95932401       2.31628073       9.26512294       0.00000299       0.00000000       0.00000000
Pu       6.95727518      -0.00841700      11.57297070       0.00003262       0.00000627      -0.00003262
Pu       4.65649017       2.31628073      11.54981119      -0.00000030       0.00000000       0.00000169
Pu       4.64782429       4.64782429      -0.01526282      -0.00003276      -0.00003276       0.00003276
Pu       6.95727518       6.95727518      -0.00841700       0.00003262       0.00003262       0.00000627
Pu       6.98043469       4.65649017       2.31628073      -0.00000169      -0.00000030      -0.00000000
Pu       4.65649017       6.98043469       2.31628073      -0.00000030      -0.00000169      -0.00000000
Pu       4.64782429       4.64782429       4.64782429      -0.00003276      -0.00003276      -0.00003276
Pu       6.95727518       6.95727518       4.64097847       0.00003262       0.00003262      -0.00000627
Pu       6.95727518       4.64097847       6.95727518       0.00003262      -0.00000627       0.00003262
Pu       4.64097847       6.95727518       6.95727518      -0.00000627       0.00003262       0.00003262
Pu       4.64494501       4.64494501       9.26512294      -0.00001648      -0.00001648       0.00000000
Pu       6.95467482       6.95467482       9.26512294      -0.00001201      -0.00001201       0.00000000
Pu       6.95727518       4.64097847      11.57297070       0.00003262      -0.00000627      -0.00003262
Pu       4.64097847       6.95727518      11.57297070      -0.00000627       0.00003262      -0.00003262
Pu       4.64494501       9.26512294      -0.01238354      -0.00001648      -0.00000000       0.00001648
Pu       6.95727518      11.57297070      -0.00841700       0.00003262      -0.00003262       0.00000627
Pu       6.95932401       9.26512294       2.31628073       0.00000299       0.00000000       0.00000000
Pu       4.65649017      11.54981119       2.31628073      -0.00000030       0.00000169      -0.00000000
Pu       4.64494501       9.26512294       4.64494501      -0.00001648      -0.00000000      -0.00001648
Pu       6.95727518      11.57297070       4.64097847       0.00003262      -0.00003262      -0.00000627
Pu       6.95467482       9.26512294       6.95467482      -0.00001201       0.00000000      -0.00001201
Pu       4.64097847      11.57297070       6.95727518      -0.00000627      -0.00003262       0.00003262
Pu       4.63826531       9.26512294       9.26512294      -0.00000628       0.00000000       0.00000000
Pu       6.95467482      11.57557106       9.26512294      -0.00001201       0.00001201       0.00000000
Pu       6.95467482       9.26512294      11.57557106      -0.00001201      -0.00000000       0.00001201
Pu       4.64097847      11.57297070      11.57297070      -0.00000627      -0.00003262      -0.00003262
Pu       9.26512294      -0.01238354      -0.01238354       0.00000000       0.00001648       0.00001648
Pu      11.54981119       2.31628073      -0.02392870       0.00000169      -0.00000000       0.00000030
Pu      11.54981119      -0.02392870       2.31628073       0.00000169       0.00000030      -0.00000000
Pu       9.26512294       2.31628073       2.31628073       0.00000000       0.00000000      -0.00000000
Pu       9.26512294      -0.01238354       4.64494501      -0.00000000       0.00001648      -0.00001648
Pu      11.54981119       2.31628073       4.65649017       0.00000169      -0.00000000      -0.00000030
Pu      11.57297070      -0.00841700       6.95727518      -0.00003262       0.00000627       0.00003262
Pu       9.26512294       2.31628073       6.95932401       0.00000000       0.00000000       0.00000299
Pu       9.26512294      -0.00570384       9.26512294       0.00000000       0.00000628       0.00000000
Pu      11.57092187       2.31628073       9.26512294      -0.00000299       0.00000000       0.00000000
Pu      11.57297070      -0.00841700      11.57297070      -0.00003262       0.00000627      -0.00003262
Pu       9.26512294       2.31628073      11.57092187      -0.00000000      -0.00000000      -0.00000299
Pu       9.26512294       4.64494501      -0.01238354       0.00000000      -0.00001648       0.00001648
Pu      11.57297070       6.95727518      -0.00841700      -0.00003262       0.00003262       0.00000627
Pu      11.54981119       4.65649017       2.31628073       0.00000169      -0.00000030      -0.00000000
Pu       9.26512294       6.95932401       2.31628073       0.00000000       0.00000299      -0.00000000
Pu       9.26512294       4.64494501       4.64494501       0.00000000      -0.00001648      -0.00001648
Pu      11.57297070       6.95727518       4.64097847      -0.00003262       0.00003262      -0.00000627
Pu      11.57297070       4.64097847       6.95727518      -0.00003262      -0.00000627       0.00003262
Pu       9.26512294       6.95467482       6.95467482       0.00000000      -0.00001201      -0.00001201
Pu       9.26512294       4.63826531       9.26512294      -0.00000000      -0.00000628      -0.00000000
Pu      11.57557106       6.95467482       9.26512294       0.00001201      -0.00001201      -0.00000000
Pu      11.57297070       4.64097847      11.57297070      -0.00003262      -0.00000627      -0.00003262
Pu       9.26512294       6.95467482      11.57557106       0.00000000      -0.00001201       0.00001201
Pu       9.26512294       9.26512294      -0.00570384       0.00000000       0.00000000       0.00000628
Pu      11.57297070      11.57297070      -0.00841700      -0.00003262      -0.00003262       0.00000627
Pu      11.57092187       9.26512294       2.31628073      -0.00000299       0.00000000       0.00000000
Pu       9.26512294      11.57092187       2.31628073      -0.00000000      -0.00000299      -0.00000000
Pu       9.26512294       9.26512294       4.63826531       0.00000000      -0.00000000      -0.00000628
Pu      11.57297070      11.57297070       4.64097847      -0.00003262      -0.00003262      -0.00000627
Pu      11.57557106       9.26512294       6.95467482       0.00001201       0.00000000      -0.00001201
Pu       9.26512294      11.57557106       6.95467482      -0.00000000       0.00001201      -0.00001201
Pu       9.26512294       9.26512294       9.26512294       0.00000000       0.00000000       0.00000000
Pu      11.57557106      11.57557106       9.26512294       0.00001201       0.00001201      -0.00000000
Pu      11.57557106       9.26512294      11.57557106       0.00001201      -0.00000000       0.00001201
Pu       9.26512294      11.57557106      11.57557106      -0.00000000       0.00001201       0.00001201
Pu       2.31628073       2.31628073       2.31628073      -0.00000000      -0.00000000      -0.00000000
109
Lattice="13.89768440882287 1.7e-15 1.2e-15 1.7e-15 13.89768440882286 1.9e-15 1.2e-15 1.9e-15 13.897684408822562" Properties=species:S:1:pos:R:3:forces:R:3 energy=-1670.7055010348477 pbc="T T T"
Pu      -0.01998063      -0.01998063      -0.01998063      -0.00163890      -0.00163890      -0.00163890
Pu       2.31105359       2.31105359      -0.24838083      -0.00089817      -0.00089817       0.00035967
Pu       2.31105359      -0.24838083       2.31105359      -0.00089817       0.00035967      -0.00089817
Pu      -0.24838083       2.31105359       2.31105359       0.00035967      -0.00089817      -0.00089817
Pu      -0.02156816      -0.02156816       4.64250652       0.00010100       0.00010100      -0.00013038
Pu       2.30928941       2.30928941       4.86750771       0.00006746       0.00006746       0.00084218
Pu       2.31003249      -0.03104275       6.97404485      -0.00025206       0.00027327       0.00019117
Pu      -0.03104275       2.31003249       6.97404485       0.00027327      -0.00025206       0.00019117
Pu      -0.01773569      -0.01773569       9.25982470      -0.00073600      -0.00073600      -0.00059510
Pu       2.30982845       2.30982845       9.25769418       0.00007057       0.00007057       0.00085400
Pu       2.31143472      -0.02949204      11.54404843      -0.00096734      -0.00031376      -0.00041933
Pu      -0.02949204       2.31143472      11.54404843      -0.00031376      -0.00096734      -0.00041933
Pu      -0.02156816       4.64250652      -0.02156816       0.00010100      -0.00013038       0.00010100
Pu       2.31003249       6.97404485      -0.03104275      -0.00025206       0.00019117       0.00027327
Pu       2.30928941       4.86750771       2.30928941       0.00006746       0.00084218       0.00006746
Pu      -0.03104275       6.97404485       2.31003249       0.00027327       0.00019117      -0.00025206
Pu      -0.02338632       4.64124875       4.64124875       0.00070600      -0.00016712      -0.00016712
Pu       2.30860886       6.97311355       4.64975168       0.00075281       0.00045556       0.00010057
Pu       2.30860886       4.64975168       6.97311355       0.00075281       0.00010057       0.00045556
Pu      -0.01682586       6.95074465       6.95074465       0.00160675       0.00017408       0.00017408
Pu      -0.01977324       4.63934997       9.25809251       0.00079309      -0.00074643       0.00064591
Pu       2.30892732       6.95315297       9.25788862       0.00054591      -0.00015415       0.00038638
Pu       2.30953211       4.65055574      11.54166245       0.00076078      -0.00016185       0.00156705
Pu      -0.01458023       6.95238380      11.56667143      -0.00042431      -0.00130095      -0.00003469
Pu      -0.01773569       9.25982470      -0.01773569      -0.00073600      -0.00059510      -0.00073600
Pu       2.31143472      11.54404843      -0.02949204      -0.00096734      -0.00041933      -0.00031376
Pu       2.30982845       9.25769418       2.30982845       0.00007057       0.00085400       0.00007057
Pu      -0.02949204      11.54404843       2.31143472      -0.00031376      -0.00041933      -0.00096734
Pu      -0.01977324       9.25809251       4.63934997       0.00079309       0.00064591      -0.00074643
Pu       2.30953211      11.54166245       4.65055574       0.00076078       0.00156705      -0.00016185
Pu       2.30892732       9.25788862       6.95315297       0.00054591       0.00038638      -0.00015415
Pu      -0.01458023      11.56667143       6.95238380      -0.00042431      -0.00003469      -0.00130095
Pu      -0.01208811       9.25988253       9.25988253       0.00005427      -0.00108254      -0.00108254
Pu       2.31066369      11.56470568       9.25950211      -0.00054415      -0.00006862      -0.00066504
Pu       2.31066369       9.25950211      11.56470568      -0.00054415      -0.00066504      -0.00006862
Pu      -0.01302871      11.56848055      11.56848055      -0.00110865      -0.00157537      -0.00157537
Pu       4.64250652      -0.02156816      -0.02156816      -0.00013038       0.00010100       0.00010100
Pu       6.97404485       2.31003249      -0.03104275       0.00019117      -0.00025206       0.00027327
Pu       6.97404485      -0.03104275       2.31003249       0.00019117       0.00027327      -0.00025206
Pu       4.86750771       2.30928941       2.30928941       0.00084218       0.00006746       0.00006746
Pu       4.64124875      -0.02338632       4.64124875      -0.00016712       0.00070600      -0.00016712
Pu       6.97311355       2.30860886       4.64975168       0.00045556       0.00075281       0.00010057
Pu       6.95074465      -0.01682586       6.95074465       0.00017408       0.00160675       0.00017408
Pu       4.64975168       2.30860886       6.97311355       0.00010057       0.00075281       0.00045556
Pu       4.63934997      -0.01977324       9.25809251      -0.00074643       0.00079309       0.00064591
Pu       6.95315297       2.30892732       9.25788862      -0.00015415       0.00054591       0.00038638
Pu       6.95238380      -0.01458023      11.56667143      -0.00130095      -0.00042431      -0.00003469
Pu       4.65055574       2.30953211      11.54166245      -0.00016185       0.00076078       0.00156705
Pu       4.64124875       4.64124875      -0.02338632      -0.00016712      -0.00016712       0.00070600
Pu       6.95074465       6.95074465      -0.01682586       0.00017408       0.00017408       0.00160675
Pu       6.97311355       4.64975168       2.30860886       0.00045556       0.00010057       0.00075281
Pu       4.64975168       6.97311355       2.30860886       0.00010057       0.00045556       0.00075281
Pu       4.64054862       4.64054862       4.64054862       0.00078756       0.00078756       0.00078756
Pu       6.95027097       6.95027097       4.63361315      -0.00009572      -0.00009572       0.00066985
Pu       6.95027097       4.63361315       6.95027097      -0.00009572       0.00066985      -0.00009572
Pu       4.63361315       6.95027097       6.95027097       0.00066985      -0.00009572      -0.00009572
Pu       4.63784529       4.63784529       9.25688263       0.00061963       0.00061963       0.00106654
Pu       6.94798738       6.94798738       9.25762269       0.00039313       0.00039313       0.00117327
Pu       6.95051473       4.63437752      11.56454879       0.00060393       0.00022246       0.00166706
Pu       4.63437752       6.95051473      11.56454879       0.00022246       0.00060393       0.00166706
Pu       4.63934997       9.25809251      -0.01977324      -0.00074643       0.00064591       0.00079309
Pu       6.95238380      11.56667143      -0.01458023      -0.00130095      -0.00003469      -0.00042431
Pu       6.95315297       9.25788862       2.30892732      -0.00015415       0.00038638       0.00054591
Pu       4.65055574      11.54166245       2.30953211      -0.00016185       0.00156705       0.00076078
Pu       4.63784529       9.25688263       4.63784529       0.00061963       0.00106654       0.00061963
Pu       6.95051473      11.56454879       4.63437752       0.00060393       0.00166706       0.00022246
Pu       6.94798738       9.25762269       6.94798738       0.00039313       0.00117327       0.00039313
Pu       4.63437752      11.56454879       6.95051473       0.00022246       0.00166706       0.00060393
Pu       4.63186765       9.25842896       9.25842896       0.00012364       0.00026075       0.00026075
Pu       6.94915505      11.56866348       9.25908161      -0.00046530       0.00041245      -0.00028021
Pu       6.94915505       9.25908161      11.56866348      -0.00046530      -0.00028021       0.00041245
Pu       4.63594659      11.56684126      11.56684126      -0.00071937      -0.00016723      -0.00016723
Pu       9.25982470      -0.01773569      -0.01773569      -0.00059510      -0.00073600      -0.00073600
Pu      11.54404843       2.31143472      -0.02949204      -0.00041933      -0.00096734      -0.00031376
Pu      11.54404843      -0.02949204       2.31143472      -0.00041933      -0.00031376      -0.00096734
Pu       9.25769418       2.30982845       2.30982845       0.00085400       0.00007057       0.00007057
Pu       9.25809251      -0.01977324       4.63934997       0.00064591       0.00079309      -0.00074643
Pu      11.54166245       2.30953211       4.65055574       0.00156705       0.00076078      -0.00016185
Pu      11.56667143      -0.01458023       6.95238380      -0.00003469      -0.00042431      -0.00130095
Pu       9.25788862       2.30892732       6.95315297       0.00038638       0.00054591      -0.00015415
Pu       9.25988253      -0.01208811       9.25988253      -0.00108254       0.00005427      -0.00108254
Pu      11.56470568       2.31066369       9.25950211      -0.00006862      -0.00054415      -0.00066504
Pu      11.56848055      -0.01302871      11.56848055      -0.00157537      -0.00110865      -0.00157537
Pu       9.25950211       2.31066369      11.56470568      -0.00066504      -0.00054415      -0.00006862
Pu       9.25809251       4.63934997      -0.01977324       0.00064591      -0.00074643       0.00079309
Pu      11.56667143       6.95238380      -0.01458023      -0.00003469      -0.00130095      -0.00042431
Pu      11.54166245       4.65055574       2.30953211       0.00156705      -0.00016185       0.00076078
Pu       9.25788862       6.95315297       2.30892732       0.00038638      -0.00015415       0.00054591
Pu       9.25688263       4.63784529       4.63784529       0.00106654       0.00061963       0.00061963
Pu      11.56454879       6.95051473       4.63437752       0.00166706       0.00060393       0.00022246
Pu      11.56454879       4.63437752       6.95051473       0.00166706       0.00022246       0.00060393
Pu       9.25762269       6.94798738       6.94798738       0.00117327       0.00039313       0.00039313
Pu       9.25842896       4.63186765       9.25842896       0.00026075       0.00012364       0.00026075
Pu      11.56866348       6.94915505       9.25908161       0.00041245      -0.00046530      -0.00028021
Pu      11.56684126       4.63594659      11.56684126      -0.00016723      -0.00071937      -0.00016723
Pu       9.25908161       6.94915505      11.56866348      -0.00028021      -0.00046530       0.00041245
Pu       9.25988253       9.25988253      -0.01208811      -0.00108254      -0.00108254       0.00005427
Pu      11.56848055      11.56848055      -0.01302871      -0.00157537      -0.00157537      -0.00110865
Pu      11.56470568       9.25950211       2.31066369      -0.00006862      -0.00066504      -0.00054415
Pu       9.25950211      11.56470568       2.31066369      -0.00066504      -0.00006862      -0.00054415
Pu       9.25842896       9.25842896       4.63186765       0.00026075       0.00026075       0.00012364
Pu      11.56684126      11.56684126       4.63594659      -0.00016723      -0.00016723      -0.00071937
Pu      11.56866348       9.25908161       6.94915505       0.00041245      -0.00028021      -0.00046530
Pu       9.25908161      11.56866348       6.94915505      -0.00028021       0.00041245      -0.00046530
Pu       9.25922607       9.25922607       9.25922607      -0.00010888      -0.00010888      -0.00010888
Pu      11.57040329      11.57040329       9.26073277      -0.00085752      -0.00085752      -0.00185744
Pu      11.57040329       9.26073277      11.57040329      -0.00085752      -0.00185744      -0.00085752
Pu       9.26073277      11.57040329      11.57040329      -0.00185744      -0.00085752      -0.00085752
Pu       2.30960463       2.30960463       2.30960463       0.00054067       0.00054067       0.00054067
109
Lattice="13.89768440882287 1.7e-15 1.2e-15 1.7e-15 13.89768440882286 1.9e-15 1.2e-15 1.9e-15 13.897684408822562" Properties=species:S:1:pos:R:3:forces:R:3 energy=-1670.7046594289336 pbc="T T T"
Pu      -0.02119452      -0.02119452      -0.02119452      -0.00375568      -0.00375568      -0.00375568
Pu       2.31002096       2.31002096      -0.25819996      -0.00189618      -0.00189618       0.01082928
Pu       2.31002096      -0.25819996       2.31002096      -0.00189618       0.01082928      -0.00189618
Pu      -0.25819996       2.31002096       2.31002096       0.01082928      -0.00189618      -0.00189618
Pu      -0.02303117      -0.02303117       4.64357356       0.00077651       0.00077651      -0.00102951
Pu       2.30512323       2.30512323       4.85759687       0.00391358       0.00391358       0.01107934
Pu       2.31099477      -0.02910431       6.97223431      -0.00071352      -0.00201347       0.00231391
Pu      -0.02910431       2.31099477       6.97223431      -0.00201347      -0.00071352       0.00231391
Pu      -0.01608910      -0.01608910       9.25830175      -0.00180158      -0.00180158       0.00146115
Pu       2.31179093       2.31179093       9.25724179      -0.00076539      -0.00076539       0.00075831
Pu       2.31245644      -0.02860059      11.54286855      -0.00116435      -0.00154450      -0.00007988
Pu      -0.02860059       2.31245644      11.54286855      -0.00154450      -0.00116435      -0.00007988
Pu      -0.02303117       4.64357356      -0.02303117       0.00077651      -0.00102951       0.00077651
Pu       2.31099477       6.97223431      -0.02910431      -0.00071352       0.00231391      -0.00201347
Pu       2.30512323       4.85759687       2.30512323       0.00391358       0.01107934       0.00391358
Pu      -0.02910431       6.97223431       2.31099477      -0.00201347       0.00231391      -0.00071352
Pu      -0.02318395       4.64063805       4.64063805       0.00109871      -0.00069484      -0.00069484
Pu       2.31040630       6.97042181       4.64892875      -0.00137293       0.00240255       0.00069177
Pu       2.31040630       4.64892875       6.97042181      -0.00137293       0.00069177       0.00240255
Pu      -0.01419920       6.95078637       6.95078637       0.00001264       0.00026075       0.00026075
Pu      -0.01744936       4.63983424       9.25749493      -0.00041338       0.00013706       0.00056446
Pu       2.31127124       6.95410421       9.25702460      -0.00001849      -0.00101661       0.00133607
Pu       2.31223500       4.65366180      11.53930232      -0.00162504      -0.00354037       0.00351488
Pu      -0.01320454       6.95241781      11.56703049      -0.00061304      -0.00014327      -0.00061931
Pu      -0.01608910       9.25830175      -0.01608910      -0.00180158       0.00146115      -0.00180158
Pu       2.31245644      11.54286855      -0.02860059      -0.00116435      -0.00007988      -0.00154450
Pu       2.31179093       9.25724179       2.31179093      -0.00076539       0.00075831      -0.00076539
Pu      -0.02860059      11.54286855       2.31245644      -0.00154450      -0.00007988      -0.00116435
Pu      -0.01744936       9.25749493       4.63983424      -0.00041338       0.00056446       0.00013706
Pu       2.31223500      11.53930232       4.65366180      -0.00162504       0.00351488      -0.00354037
Pu       2.31127124       9.25702460       6.95410421      -0.00001849       0.00133607      -0.00101661
Pu      -0.01320454      11.56703049       6.95241781      -0.00061304      -0.00061931      -0.00014327
Pu      -0.01001761       9.26018090       9.26018090      -0.00090213      -0.00040521      -0.00040521
Pu       2.31180018      11.56592411       9.25917567      -0.00063548      -0.00107398      -0.00013498
Pu       2.31180018       9.25917567      11.56592411      -0.00063548      -0.00013498      -0.00107398
Pu      -0.01197508      11.56872714      11.56872714      -0.00113598      -0.00176937      -0.00176937
Pu       4.64357356      -0.02303117      -0.02303117      -0.00102951       0.00077651       0.00077651
Pu       6.97223431       2.31099477      -0.02910431       0.00231391      -0.00071352      -0.00201347
Pu       6.97223431      -0.02910431       2.31099477       0.00231391      -0.00201347      -0.00071352
Pu       4.85759687       2.30512323       2.30512323       0.01107934       0.00391358       0.00391358
Pu       4.64063805      -0.02318395       4.64063805      -0.00069484       0.00109871      -0.00069484
Pu       6.97042181       2.31040630       4.64892875       0.00240255      -0.00137293       0.00069177
Pu       6.95078637      -0.01419920       6.95078637       0.00026075       0.00001264       0.00026075
Pu       4.64892875       2.31040630       6.97042181       0.00069177      -0.00137293       0.00240255
Pu       4.63983424      -0.01744936       9.25749493       0.00013706      -0.00041338       0.00056446
Pu       6.95410421       2.31127124       9.25702460      -0.00101661      -0.00001849       0.00133607
Pu       6.95241781      -0.01320454      11.56703049      -0.00014327      -0.00061304      -0.00061931
Pu       4.65366180       2.31223500      11.53930232      -0.00354037      -0.00162504       0.00351488
Pu       4.64063805       4.64063805      -0.02318395      -0.00069484      -0.00069484       0.00109871
Pu       6.95078637       6.95078637      -0.01419920       0.00026075       0.00026075       0.00001264
Pu       6.97042181       4.64892875       2.31040630       0.00240255       0.00069177      -0.00137293
Pu       4.64892875       6.97042181       2.31040630       0.00069177       0.00240255      -0.00137293
Pu       4.63553518       4.63553518       4.63553518       0.00468036       0.00468036       0.00468036
Pu       6.94947509       6.94947509       4.63541922       0.00098999       0.00098999      -0.00060482
Pu       6.94947509       4.63541922       6.94947509       0.00098999      -0.00060482       0.00098999
Pu       4.63541922       6.94947509       6.94947509      -0.00060482       0.00098999       0.00098999
Pu       4.64057123       4.64057123       9.25529276      -0.00117869      -0.00117869       0.00288918
Pu       6.95051931       6.95051931       9.25965905      -0.00163008      -0.00163008      -0.00108880
Pu       6.95226651       4.63612553      11.56603867      -0.00109252      -0.00028367       0.00037960
Pu       4.63612553       6.95226651      11.56603867      -0.00028367      -0.00109252       0.00037960
Pu       4.63983424       9.25749493      -0.01744936       0.00013706       0.00056446      -0.00041338
Pu       6.95241781      11.56703049      -0.01320454      -0.00014327      -0.00061931      -0.00061304
Pu       6.95410421       9.25702460       2.31127124      -0.00101661       0.00133607      -0.00001849
Pu       4.65366180      11.53930232       2.31223500      -0.00354037       0.00351488      -0.00162504
Pu       4.64057123       9.25529276       4.64057123      -0.00117869       0.00288918      -0.00117869
Pu       6.95226651      11.56603867       4.63612553      -0.00109252       0.00037960      -0.00028367
Pu       6.95051931       9.25965905       6.95051931      -0.00163008      -0.00108880      -0.00163008
Pu       4.63612553      11.56603867       6.95226651      -0.00028367       0.00037960      -0.00109252
Pu       4.63355382       9.25961750       9.25961750      -0.00009594      -0.00078936      -0.00078936
Pu       6.95023386      11.57095192       9.26051580      -0.00035962      -0.00082996      -0.00099005
Pu       6.95023386       9.26051580      11.57095192      -0.00035962      -0.00099005      -0.00082996
Pu       4.63651944      11.56745266      11.56745266      -0.00089201      -0.00103671      -0.00103671
Pu       9.25830175      -0.01608910      -0.01608910       0.00146115      -0.00180158      -0.00180158
Pu      11.54286855       2.31245644      -0.02860059      -0.00007988      -0.00116435      -0.00154450
Pu      11.54286855      -0.02860059       2.31245644      -0.00007988      -0.00154450      -0.00116435
Pu       9.25724179       2.31179093       2.31179093       0.00075831      -0.00076539      -0.00076539
Pu       9.25749493      -0.01744936       4.63983424       0.00056446      -0.00041338       0.00013706
Pu      11.53930232       2.31223500       4.65366180       0.00351488      -0.00162504      -0.00354037
Pu      11.56703049      -0.01320454       6.95241781      -0.00061931      -0.00061304      -0.00014327
Pu       9.25702460       2.31127124       6.95410421       0.00133607      -0.00001849      -0.00101661
Pu       9.26018090      -0.01001761       9.26018090      -0.00040521      -0.00090213      -0.00040521
Pu      11.56592411       2.31180018       9.25917567      -0.00107398      -0.00063548      -0.00013498
Pu      11.56872714      -0.01197508      11.56872714      -0.00176937      -0.00113598      -0.00176937
Pu       9.25917567       2.31180018      11.56592411      -0.00013498      -0.00063548      -0.00107398
Pu       9.25749493       4.63983424      -0.01744936       0.00056446       0.00013706      -0.00041338
Pu      11.56703049       6.95241781      -0.01320454      -0.00061931      -0.00014327      -0.00061304
Pu      11.53930232       4.65366180       2.31223500       0.00351488      -0.00354037      -0.00162504
Pu       9.25702460       6.95410421       2.31127124       0.00133607      -0.00101661      -0.00001849
Pu       9.25529276       4.64057123       4.64057123       0.00288918      -0.00117869      -0.00117869
Pu      11.56603867       6.95226651       4.63612553       0.00037960      -0.00109252      -0.00028367
Pu      11.56603867       4.63612553       6.95226651       0.00037960      -0.00028367      -0.00109252
Pu       9.25965905       6.95051931       6.95051931      -0.00108880      -0.00163008      -0.00163008
Pu       9.25961750       4.63355382       9.25961750      -0.00078936      -0.00009594      -0.00078936
Pu      11.57095192       6.95023386       9.26051580      -0.00082996      -0.00035962      -0.00099005
Pu      11.56745266       4.63651944      11.56745266      -0.00103671      -0.00089201      -0.00103671
Pu       9.26051580       6.95023386      11.57095192      -0.00099005      -0.00035962      -0.00082996
Pu       9.26018090       9.26018090      -0.01001761      -0.00040521      -0.00040521      -0.00090213
Pu      11.56872714      11.56872714      -0.01197508      -0.00176937      -0.00176937      -0.00113598
Pu      11.56592411       9.25917567       2.31180018      -0.00107398      -0.00013498      -0.00063548
Pu       9.25917567      11.56592411       2.31180018      -0.00013498      -0.00107398      -0.00063548
Pu       9.25961750       9.25961750       4.63355382      -0.00078936      -0.00078936      -0.00009594
Pu      11.56745266      11.56745266       4.63651944      -0.00103671      -0.00103671      -0.00089201
Pu      11.57095192       9.26051580       6.95023386      -0.00082996      -0.00099005      -0.00035962
Pu       9.26051580      11.57095192       6.95023386      -0.00099005      -0.00082996      -0.00035962
Pu       9.26157661       9.26157661       9.26157661      -0.00102845      -0.00102845      -0.00102845
Pu      11.57206073      11.57206073       9.26120332      -0.00145520      -0.00145520      -0.00084273
Pu      11.57206073       9.26120332      11.57206073      -0.00145520      -0.00084273      -0.00145520
Pu       9.26120332      11.57206073      11.57206073      -0.00084273      -0.00145520      -0.00145520
Pu       2.29922389       2.29922389       2.29922389       0.01140685       0.01140685       0.01140685
109
Lattice="13.89768440882287 1.7e-15 1.2e-15 1.7e-15 13.89768440882286 1.9e-15 1.2e-15 1.9e-15 13.897684408822562" Properties=species:S:1:pos:R:3:forces:R:3 energy=-1670.69456628072 pbc="T T T"
Pu      -0.00818422      -0.00818422      -0.00818422      -0.02798363      -0.02798363      -0.02798363
Pu       2.31784750       2.31784750      -0.28019885      -0.01526843      -0.01526843       0.03399671
Pu       2.31784750      -0.28019885       2.31784750      -0.01526843       0.03399671      -0.01526843
Pu      -0.28019885       2.31784750       2.31784750       0.03399671      -0.01526843      -0.01526843
Pu      -0.02664813      -0.02664813       4.65074952       0.00347963       0.00347963      -0.00443656
Pu       2.29438516       2.29438516       4.83467038       0.00935689       0.00935689       0.03621212
Pu       2.31045042      -0.02973453       6.96847161      -0.00064660      -0.00334018       0.00779279
Pu      -0.02973453       2.31045042       6.96847161      -0.00334018      -0.00064660       0.00779279
Pu      -0.01200421      -0.01200421       9.26109740      -0.00234682      -0.00234682      -0.00072554
Pu       2.31373191       2.31373191       9.25410919      -0.00167138      -0.00167138       0.00174091
Pu       2.32052291      -0.02274686      11.54464506      -0.00524753      -0.00584483      -0.00282354
Pu      -0.02274686       2.32052291      11.54464506      -0.00584483      -0.00524753      -0.00282354
Pu      -0.02664813       4.65074952      -0.02664813       0.00347963      -0.00443656       0.00347963
Pu       2.31045042       6.96847161      -0.02973453      -0.00064660       0.00779279      -0.00334018
Pu       2.29438516       4.83467038       2.29438516       0.00935689       0.03621212       0.00935689
Pu      -0.02973453       6.96847161       2.31045042      -0.00334018       0.00779279      -0.00064660
Pu      -0.02772839       4.63934490       4.63934490       0.00180452      -0.00102959      -0.00102959
Pu       2.30756813       6.96210014       4.64358940       0.00002091       0.00706633       0.00429758
Pu       2.30756813       4.64358940       6.96210014       0.00002091       0.00429758       0.00706633
Pu      -0.01361753       6.95163260       6.95163260      -0.00092105      -0.00071351      -0.00071351
Pu      -0.01665038       4.64205595       9.25289758      -0.00080387      -0.00050655       0.00518952
Pu       2.31258869       6.95585484       9.25372280       0.00006935      -0.00202400       0.00220528
Pu       2.31690696       4.66163479      11.52867259      -0.00558262      -0.00879879       0.01065632
Pu      -0.01329974       6.95614601      11.56593415       0.00057756      -0.00167749      -0.00085725
Pu      -0.01200421       9.26109740      -0.01200421      -0.00234682      -0.00072554      -0.00234682
Pu       2.32052291      11.54464506      -0.02274686      -0.00524753      -0.00282354      -0.00584483
Pu       2.31373191       9.25410919       2.31373191      -0.00167138       0.00174091      -0.00167138
Pu      -0.02274686      11.54464506       2.32052291      -0.00584483      -0.00282354      -0.00524753
Pu      -0.01665038       9.25289758       4.64205595      -0.00080387       0.00518952      -0.00050655
Pu       2.31690696      11.52867259       4.66163479      -0.00558262       0.01065632      -0.00879879
Pu       2.31258869       9.25372280       6.95585484       0.00006935       0.00220528      -0.00202400
Pu      -0.01329974      11.56593415       6.95614601       0.00057756      -0.00085725      -0.00167749
Pu      -0.00728248       9.26547751       9.26547751      -0.00144381      -0.00361318      -0.00361318
Pu       2.31389072      11.56873485       9.25951637       0.00010704      -0.00337130       0.00170674
Pu       2.31389072       9.25951637      11.56873485       0.00010704       0.00170674      -0.00337130
Pu      -0.00198838      11.57967725      11.57967725      -0.00773973      -0.01099040      -0.01099040
Pu       4.65074952      -0.02664813      -0.02664813      -0.00443656       0.00347963       0.00347963
Pu       6.96847161       2.31045042      -0.02973453       0.00779279      -0.00064660      -0.00334018
Pu       6.96847161      -0.02973453       2.31045042       0.00779279      -0.00334018      -0.00064660
Pu       4.83467038       2.29438516       2.29438516       0.03621212       0.00935689       0.00935689
Pu       4.63934490      -0.02772839       4.63934490      -0.00102959       0.00180452      -0.00102959
Pu       6.96210014       2.30756813       4.64358940       0.00706633       0.00002091       0.00429758
Pu       6.95163260      -0.01361753       6.95163260      -0.00071351      -0.00092105      -0.00071351
Pu       4.64358940       2.30756813       6.96210014       0.00429758       0.00002091       0.00706633
Pu       4.64205595      -0.01665038       9.25289758      -0.00050655      -0.00080387       0.00518952
Pu       6.95585484       2.31258869       9.25372280      -0.00202400       0.00006935       0.00220528
Pu       6.95614601      -0.01329974      11.56593415      -0.00167749       0.00057756      -0.00085725
Pu       4.66163479       2.31690696      11.52867259      -0.00879879      -0.00558262       0.01065632
Pu       4.63934490       4.63934490      -0.02772839      -0.00102959      -0.00102959       0.00180452
Pu       6.95163260       6.95163260      -0.01361753      -0.00071351      -0.00071351      -0.00092105
Pu       6.96210014       4.64358940       2.30756813       0.00706633       0.00429758       0.00002091
Pu       4.64358940       6.96210014       2.30756813       0.00429758       0.00706633       0.00002091
Pu       4.62145132       4.62145132       4.62145132       0.01320185       0.01320185       0.01320185
Pu       6.94387910       6.94387910       4.63327160       0.00353306       0.00353306       0.00001872
Pu       6.94387910       4.63327160       6.94387910       0.00353306       0.00001872       0.00353306
Pu       4.63327160       6.94387910       6.94387910       0.00001872       0.00353306       0.00353306
Pu       4.64224391       4.64224391       9.24731176      -0.00178424      -0.00178424       0.00538703
Pu       6.95197140       6.95197140       9.25815546      -0.00199644      -0.00199644      -0.00137805
Pu       6.95419268       4.63946947      11.56377192      -0.00160670      -0.00212949       0.00056929
Pu       4.63946947       6.95419268      11.56377192      -0.00212949      -0.00160670       0.00056929
Pu       4.64205595       9.25289758      -0.01665038      -0.00050655       0.00518952      -0.00080387
Pu       6.95614601      11.56593415      -0.01329974      -0.00167749      -0.00085725       0.00057756
Pu       6.95585484       9.25372280       2.31258869      -0.00202400       0.00220528       0.00006935
Pu       4.66163479      11.52867259       2.31690696      -0.00879879       0.01065632      -0.00558262
Pu       4.64224391       9.24731176       4.64224391      -0.00178424       0.00538703      -0.00178424
Pu       6.95419268      11.56377192       4.63946947      -0.00160670       0.00056929      -0.00212949
Pu       6.95197140       9.25815546       6.95197140      -0.00199644      -0.00137805      -0.00199644
Pu       4.63946947      11.56377192       6.95419268      -0.00212949       0.00056929      -0.00160670
Pu       4.63616599       9.25983387       9.25983387      -0.00166763      -0.00199721      -0.00199721
Pu       6.95491783      11.57207577       9.26276657      -0.00241120      -0.00092801      -0.00149470
Pu       6.95491783       9.26276657      11.57207577      -0.00241120      -0.00149470      -0.00092801
Pu       4.63905571      11.56689365      11.56689365      -0.00052931      -0.00058543      -0.00058543
Pu       9.26109740      -0.01200421      -0.01200421      -0.00072554      -0.00234682      -0.00234682
Pu      11.54464506       2.32052291      -0.02274686      -0.00282354      -0.00524753      -0.00584483
Pu      11.54464506      -0.02274686       2.32052291      -0.00282354      -0.00584483      -0.00524753
Pu       9.25410919       2.31373191       2.31373191       0.00174091      -0.00167138      -0.00167138
Pu       9.25289758      -0.01665038       4.64205595       0.00518952      -0.00080387      -0.00050655
Pu      11.52867259       2.31690696       4.66163479       0.01065632      -0.00558262      -0.00879879
Pu      11.56593415      -0.01329974       6.95614601      -0.00085725       0.00057756      -0.00167749
Pu       9.25372280       2.31258869       6.95585484       0.00220528       0.00006935      -0.00202400
Pu       9.26547751      -0.00728248       9.26547751      -0.00361318      -0.00144381      -0.00361318
Pu      11.56873485       2.31389072       9.25951637      -0.00337130       0.00010704       0.00170674
Pu      11.57967725      -0.00198838      11.57967725      -0.01099040      -0.00773973      -0.01099040
Pu       9.25951637       2.31389072      11.56873485       0.00170674       0.00010704      -0.00337130
Pu       9.25289758       4.64205595      -0.01665038       0.00518952      -0.00050655      -0.00080387
Pu      11.56593415       6.95614601      -0.01329974      -0.00085725      -0.00167749       0.00057756
Pu      11.52867259       4.66163479       2.31690696       0.01065632      -0.00879879      -0.00558262
Pu       9.25372280       6.95585484       2.31258869       0.00220528      -0.00202400       0.00006935
Pu       9.24731176       4.64224391       4.64224391       0.00538703      -0.00178424      -0.00178424
Pu      11.56377192       6.95419268       4.63946947       0.00056929      -0.00160670      -0.00212949
Pu      11.56377192       4.63946947       6.95419268       0.00056929      -0.00212949      -0.00160670
Pu       9.25815546       6.95197140       6.95197140      -0.00137805      -0.00199644      -0.00199644
Pu       9.25983387       4.63616599       9.25983387      -0.00199721      -0.00166763      -0.00199721
Pu      11.57207577       6.95491783       9.26276657      -0.00092801      -0.00241120      -0.00149470
Pu      11.56689365       4.63905571      11.56689365      -0.00058543      -0.00052931      -0.00058543
Pu       9.26276657       6.95491783      11.57207577      -0.00149470      -0.00241120      -0.00092801
Pu       9.26547751       9.26547751      -0.00728248      -0.00361318      -0.00361318      -0.00144381
Pu      11.57967725      11.57967725      -0.00198838      -0.01099040      -0.01099040      -0.00773973
Pu      11.56873485       9.25951637       2.31389072      -0.00337130       0.00170674       0.00010704
Pu       9.25951637      11.56873485       2.31389072       0.00170674      -0.00337130       0.00010704
Pu       9.25983387       9.25983387       4.63616599      -0.00199721      -0.00199721      -0.00166763
Pu      11.56689365      11.56689365       4.63905571      -0.00058543      -0.00058543      -0.00052931
Pu      11.57207577       9.26276657       6.95491783      -0.00092801      -0.00149470      -0.00241120
Pu       9.26276657      11.57207577       6.95491783      -0.00149470      -0.00092801      -0.00241120
Pu       9.26606456       9.26606456       9.26606456      -0.00280861      -0.00280861      -0.00280861
Pu      11.57851828      11.57851828       9.26958383      -0.00464210      -0.00464210      -0.00373223
Pu      11.57851828       9.26958383      11.57851828      -0.00464210      -0.00373223      -0.00464210
Pu       9.26958383      11.57851828      11.57851828      -0.00373223      -0.00464210      -0.00464210
Pu       2.27479914       2.27479914       2.27479914       0.04121447       0.04121447       0.04121447
109
Lattice="13.89768440882287 1.7e-15 1.2e-15 1.7e-15 13.89768440882286 1.9e-15 1.2e-15 1.9e-15 13.897684408822562" Properties=species:S:1:pos:R:3:forces:R:3 energy=-1670.6517839987976 pbc="T T T"
Pu       0.02279389       0.02279389       0.02279389      -0.06703530      -0.06703530      -0.06703530
Pu       2.33500093       2.33500093      -0.32303180      -0.04165548      -0.04165548       0.06503325
Pu       2.33500093      -0.32303180       2.33500093      -0.04165548       0.06503325      -0.04165548
Pu      -0.32303180       2.33500093       2.33500093       0.06503325      -0.04165548      -0.04165548
Pu      -0.03022103      -0.03022103       4.65242887       0.00097524       0.00097524       0.01205436
Pu       2.28351676       2.28351676       4.78704994       0.00656621       0.00656621       0.07927388
Pu       2.31052530      -0.02564074       6.95965129      -0.00003027      -0.00823620       0.01591472
Pu      -0.02564074       2.31052530       6.95965129      -0.00823620      -0.00003027       0.01591472
Pu      -0.00662604      -0.00662604       9.26102330      -0.00416501      -0.00416501       0.00133243
Pu       2.31780086       2.31780086       9.25003811      -0.00445844      -0.00445844       0.00508264
Pu       2.32681548      -0.01723866      11.54571558      -0.00772867      -0.00585716      -0.00244026
Pu      -0.01723866       2.32681548      11.54571558      -0.00585716      -0.00772867      -0.00244026
Pu      -0.03022103       4.65242887      -0.03022103       0.00097524       0.01205436       0.00097524
Pu       2.31052530       6.95965129      -0.02564074      -0.00003027       0.01591472      -0.00823620
Pu       2.28351676       4.78704994       2.28351676       0.00656621       0.07927388       0.00656621
Pu      -0.02564074       6.95965129       2.31052530      -0.00823620       0.01591472      -0.00003027
Pu      -0.02802089       4.63778574       4.63778574      -0.00265635      -0.00049920      -0.00049920
Pu       2.30792140       6.95107990       4.63827198      -0.00127056       0.01226822       0.00552235
Pu       2.30792140       4.63827198       6.95107990      -0.00127056       0.00552235       0.01226822
Pu      -0.01319688       6.95116094       6.95116094       0.00021414      -0.00071701      -0.00071701
Pu      -0.01432785       4.64373790       9.24796093      -0.00210846      -0.00192642       0.00664548
Pu       2.31417301       6.95782276       9.24954648      -0.00088897      -0.00226877       0.00341475
Pu       2.32242754       4.67248819      11.51593927      -0.00601733      -0.01438882       0.01450278
Pu      -0.01126648       6.95905063      11.56619684      -0.00241588      -0.00330831      -0.00187813
Pu      -0.00662604       9.26102330      -0.00662604      -0.00416501       0.00133243      -0.00416501
Pu       2.32681548      11.54571558      -0.01723866      -0.00772867      -0.00244026      -0.00585716
Pu       2.31780086       9.25003811       2.31780086      -0.00445844       0.00508264      -0.00445844
Pu      -0.01723866      11.54571558       2.32681548      -0.00585716      -0.00244026      -0.00772867
Pu      -0.01432785       9.24796093       4.64373790      -0.00210846       0.00664548      -0.00192642
Pu       2.32242754      11.51593927       4.67248819      -0.00601733       0.01450278      -0.01438882
Pu       2.31417301       9.24954648       6.95782276      -0.00088897       0.00341475      -0.00226877
Pu      -0.01126648      11.56619684       6.95905063      -0.00241588      -0.00187813      -0.00330831
Pu      -0.00519814       9.27028979       9.27028979      -0.00073465      -0.00552290      -0.00552290
Pu       2.31492628      11.57221425       9.26023049       0.00117344      -0.00418353       0.00015882
Pu       2.31492628       9.26023049      11.57221425       0.00117344       0.00015882      -0.00418353
Pu       0.00626799      11.59166482      11.59166482      -0.00818303      -0.01347010      -0.01347010
Pu       4.65242887      -0.03022103      -0.03022103       0.01205436       0.00097524       0.00097524
Pu       6.95965129       2.31052530      -0.02564074       0.01591472      -0.00003027      -0.00823620
Pu       6.95965129      -0.02564074       2.31052530       0.01591472      -0.00823620      -0.00003027
Pu       4.78704994       2.28351676       2.28351676       0.07927388       0.00656621       0.00656621
Pu       4.63778574      -0.02802089       4.63778574      -0.00049920      -0.00265635      -0.00049920
Pu       6.95107990       2.30792140       4.63827198       0.01226822      -0.00127056       0.00552235
Pu       6.95116094      -0.01319688       6.95116094      -0.00071701       0.00021414      -0.00071701
Pu       4.63827198       2.30792140       6.95107990       0.00552235      -0.00127056       0.01226822
Pu       4.64373790      -0.01432785       9.24796093      -0.00192642      -0.00210846       0.00664548
Pu       6.95782276       2.31417301       9.24954648      -0.00226877      -0.00088897       0.00341475
Pu       6.95905063      -0.01126648      11.56619684      -0.00330831      -0.00241588      -0.00187813
Pu       4.67248819       2.32242754      11.51593927      -0.01438882      -0.00601733       0.01450278
Pu       4.63778574       4.63778574      -0.02802089      -0.00049920      -0.00049920      -0.00265635
Pu       6.95116094       6.95116094      -0.01319688      -0.00071701      -0.00071701       0.00021414
Pu       6.95107990       4.63827198       2.30792140       0.01226822       0.00552235      -0.00127056
Pu       4.63827198       6.95107990       2.30792140       0.00552235       0.01226822      -0.00127056
Pu       4.60458116       4.60458116       4.60458116       0.00999067       0.00999067       0.00999067
Pu       6.94193125       6.94193125       4.63358494      -0.00234360      -0.00234360      -0.00003384
Pu       6.94193125       4.63358494       6.94193125      -0.00234360      -0.00003384      -0.00234360
Pu       4.63358494       6.94193125       6.94193125      -0.00003384      -0.00234360      -0.00234360
Pu       4.64634206       4.64634206       9.23884377      -0.00423255      -0.00423255       0.00639069
Pu       6.95535943       6.95535943       9.25866183      -0.00221275      -0.00221275      -0.00087846
Pu       6.95697998       4.64236230      11.56172330      -0.00367729      -0.00343823       0.00283565
Pu       4.64236230       6.95697998      11.56172330      -0.00343823      -0.00367729       0.00283565
Pu       4.64373790       9.24796093      -0.01432785      -0.00192642       0.00664548      -0.00210846
Pu       6.95905063      11.56619684      -0.01126648      -0.00330831      -0.00187813      -0.00241588
Pu       6.95782276       9.24954648       2.31417301      -0.00226877       0.00341475      -0.00088897
Pu       4.67248819      11.51593927       2.32242754      -0.01438882       0.01450278      -0.00601733
Pu       4.64634206       9.23884377       4.64634206      -0.00423255       0.00639069      -0.00423255
Pu       6.95697998      11.56172330       4.64236230      -0.00367729       0.00283565      -0.00343823
Pu       6.95535943       9.25866183       6.95535943      -0.00221275      -0.00087846      -0.00221275
Pu       4.64236230      11.56172330       6.95697998      -0.00343823       0.00283565      -0.00367729
Pu       4.63747669       9.26097586       9.26097586      -0.00053102      -0.00206093      -0.00206093
Pu       6.95780015      11.57493914       9.26620473      -0.00113275      -0.00302897      -0.00316149
Pu       6.95780015       9.26620473      11.57493914      -0.00113275      -0.00316149      -0.00302897
Pu       4.63920312      11.56708599      11.56708599       0.00308572       0.00010517       0.00010517
Pu       9.26102330      -0.00662604      -0.00662604       0.00133243      -0.00416501      -0.00416501
Pu      11.54571558       2.32681548      -0.01723866      -0.00244026      -0.00772867      -0.00585716
Pu      11.54571558      -0.01723866       2.32681548      -0.00244026      -0.00585716      -0.00772867
Pu       9.25003811       2.31780086       2.31780086       0.00508264      -0.00445844      -0.00445844
Pu       9.24796093      -0.01432785       4.64373790       0.00664548      -0.00210846      -0.00192642
Pu      11.51593927       2.32242754       4.67248819       0.01450278      -0.00601733      -0.01438882
Pu      11.56619684      -0.01126648       6.95905063      -0.00187813      -0.00241588      -0.00330831
Pu       9.24954648       2.31417301       6.95782276       0.00341475      -0.00088897      -0.00226877
Pu       9.27028979      -0.00519814       9.27028979      -0.00552290      -0.00073465      -0.00552290
Pu      11.57221425       2.31492628       9.26023049      -0.00418353       0.00117344       0.00015882
Pu      11.59166482       0.00626799      11.59166482      -0.01347010      -0.00818303      -0.01347010
Pu       9.26023049       2.31492628      11.57221425       0.00015882       0.00117344      -0.00418353
Pu       9.24796093       4.64373790      -0.01432785       0.00664548      -0.00192642      -0.00210846
Pu      11.56619684       6.95905063      -0.01126648      -0.00187813      -0.00330831      -0.00241588
Pu      11.51593927       4.67248819       2.32242754       0.01450278      -0.01438882      -0.00601733
Pu       9.24954648       6.95782276       2.31417301       0.00341475      -0.00226877      -0.00088897
Pu       9.23884377       4.64634206       4.64634206       0.00639069      -0.00423255      -0.00423255
Pu      11.56172330       6.95697998       4.64236230       0.00283565      -0.00367729      -0.00343823
Pu      11.56172330       4.64236230       6.95697998       0.00283565      -0.00343823      -0.00367729
Pu       9.25866183       6.95535943       6.95535943      -0.00087846      -0.00221275      -0.00221275
Pu       9.26097586       4.63747669       9.26097586      -0.00206093      -0.00053102      -0.00206093
Pu      11.57493914       6.95780015       9.26620473      -0.00302897      -0.00113275      -0.00316149
Pu      11.56708599       4.63920312      11.56708599       0.00010517       0.00308572       0.00010517
Pu       9.26620473       6.95780015      11.57493914      -0.00316149      -0.00113275      -0.00302897
Pu       9.27028979       9.27028979      -0.00519814      -0.00552290      -0.00552290      -0.00073465
Pu      11.59166482      11.59166482       0.00626799      -0.01347010      -0.01347010      -0.00818303
Pu      11.57221425       9.26023049       2.31492628      -0.00418353       0.00015882       0.00117344
Pu       9.26023049      11.57221425       2.31492628       0.00015882      -0.00418353       0.00117344
Pu       9.26097586       9.26097586       4.63747669      -0.00206093      -0.00206093      -0.00053102
Pu      11.56708599      11.56708599       4.63920312       0.00010517       0.00010517       0.00308572
Pu      11.57493914       9.26620473       6.95780015      -0.00302897      -0.00316149      -0.00113275
Pu       9.26620473      11.57493914       6.95780015      -0.00316149      -0.00302897      -0.00113275
Pu       9.27122798       9.27122798       9.27122798      -0.00395695      -0.00395695      -0.00395695
Pu      11.58474842      11.58474842       9.27707475      -0.00533617      -0.00533617      -0.00711764
Pu      11.58474842       9.27707475      11.58474842      -0.00533617      -0.00711764      -0.00533617
Pu       9.27707475      11.58474842      11.58474842      -0.00711764      -0.00533617      -0.00533617
Pu       2.22150925       2.22150925       2.22150925       0.10062502       0.10062502       0.10062502
109
Lattice="13.89768440882287 1.7e-15 1.2e-15 1.7e-15 13.89768440882286 1.9e-15 1.2e-15 1.9e-15 13.897684408822562" Properties=species:S:1:pos:R:3:forces:R:3 energy=-1670.567023745839 pbc="T T T"
Pu       0.07034173       0.07034173       0.07034173      -0.04604585      -0.04604585      -0.04604585
Pu       2.36713823       2.36713823      -0.37048854      -0.07517068      -0.07517068       0.07237962
Pu       2.36713823      -0.37048854       2.36713823      -0.07517068       0.07237962      -0.07517068
Pu      -0.37048854       2.36713823       2.36713823       0.07237962      -0.07517068      -0.07517068
Pu      -0.03130393      -0.03130393       4.65059167      -0.00439422      -0.00439422       0.02421646
Pu       2.27986207       2.27986207       4.72694083      -0.01291420      -0.01291420       0.10396404
Pu       2.31021929      -0.02038811       6.94620198       0.00016174      -0.01016018       0.02606287
Pu      -0.02038811       2.31021929       6.94620198      -0.01016018       0.00016174       0.02606287
Pu      -0.00220138      -0.00220138       9.26409837      -0.00769036      -0.00769036      -0.00295879
Pu       2.31950105       2.31950105       9.24742112      -0.00193628      -0.00193628       0.00425541
Pu       2.33246750      -0.01152709      11.54407010      -0.01170431      -0.00364803       0.02007309
Pu      -0.01152709       2.33246750      11.54407010      -0.00364803      -0.01170431       0.02007309
Pu      -0.03130393       4.65059167      -0.03130393      -0.00439422       0.02421646      -0.00439422
Pu       2.31021929       6.94620198      -0.02038811       0.00016174       0.02606287      -0.01016018
Pu       2.27986207       4.72694083       2.27986207      -0.01291420       0.10396404      -0.01291420
Pu      -0.02038811       6.94620198       2.31021929      -0.01016018       0.02606287       0.00016174
Pu      -0.02841752       4.63740320       4.63740320       0.00637071      -0.00234025      -0.00234025
Pu       2.30792851       6.94206979       4.63396064      -0.00125313       0.01125745       0.00283314
Pu       2.30792851       4.63396064       6.94206979      -0.00125313       0.00283314       0.01125745
Pu      -0.01275579       6.95242540       6.95242540       0.00052112      -0.00377559      -0.00377559
Pu      -0.01320132       4.64366233       9.24392645      -0.00145403       0.00016603       0.00444142
Pu       2.31395650       6.96012494       9.24768327       0.00099938      -0.00334942       0.00162698
Pu       2.32755751       4.68416718      11.50607867      -0.00507650      -0.01763859       0.00916808
Pu      -0.01195252       6.95879891      11.56724714       0.00007938       0.00158467      -0.00298962
Pu      -0.00220138       9.26409837      -0.00220138      -0.00769036      -0.00295879      -0.00769036
Pu       2.33246750      11.54407010      -0.01152709      -0.01170431       0.02007309      -0.00364803
Pu       2.31950105       9.24742112       2.31950105      -0.00193628       0.00425541      -0.00193628
Pu      -0.01152709      11.54407010       2.33246750      -0.00364803       0.02007309      -0.01170431
Pu      -0.01320132       9.24392645       4.64366233      -0.00145403       0.00444142       0.00016603
Pu       2.32755751      11.50607867       4.68416718      -0.00507650       0.00916808      -0.01763859
Pu       2.31395650       9.24768327       6.96012494       0.00099938       0.00162698      -0.00334942
Pu      -0.01195252      11.56724714       6.95879891       0.00007938      -0.00298962       0.00158467
Pu      -0.00419016       9.27347926       9.27347926      -0.00042015      -0.00301877      -0.00301877
Pu       2.31545611      11.57561640       9.25909885      -0.00072940      -0.00496911       0.00111080
Pu       2.31545611       9.25909885      11.57561640      -0.00072940       0.00111080      -0.00496911
Pu       0.01339083      11.60365692      11.60365692      -0.00662770      -0.00984269      -0.00984269
Pu       4.65059167      -0.03130393      -0.03130393       0.02421646      -0.00439422      -0.00439422
Pu       6.94620198       2.31021929      -0.02038811       0.02606287       0.00016174      -0.01016018
Pu       6.94620198      -0.02038811       2.31021929       0.02606287      -0.01016018       0.00016174
Pu       4.72694083       2.27986207       2.27986207       0.10396404      -0.01291420      -0.01291420
Pu       4.63740320      -0.02841752       4.63740320      -0.00234025       0.00637071      -0.00234025
Pu       6.94206979       2.30792851       4.63396064       0.01125745      -0.00125313       0.00283314
Pu       6.95242540      -0.01275579       6.95242540      -0.00377559       0.00052112      -0.00377559
Pu       4.63396064       2.30792851       6.94206979       0.00283314      -0.00125313       0.01125745
Pu       4.64366233      -0.01320132       9.24392645       0.00016603      -0.00145403       0.00444142
Pu       6.96012494       2.31395650       9.24768327      -0.00334942       0.00099938       0.00162698
Pu       6.95879891      -0.01195252      11.56724714       0.00158467       0.00007938      -0.00298962
Pu       4.68416718       2.32755751      11.50607867      -0.01763859      -0.00507650       0.00916808
Pu       4.63740320       4.63740320      -0.02841752      -0.00234025      -0.00234025       0.00637071
Pu       6.95242540       6.95242540      -0.01275579      -0.00377559      -0.00377559       0.00052112
Pu       6.94206979       4.63396064       2.30792851       0.01125745       0.00283314      -0.00125313
Pu       4.63396064       6.94206979       2.30792851       0.00283314       0.01125745      -0.00125313
Pu       4.59745212       4.59745212       4.59745212      -0.04176992      -0.04176992      -0.04176992
Pu       6.94334514       6.94334514       4.63522029      -0.00937663      -0.00937663      -0.00347789
Pu       6.94334514       4.63522029       6.94334514      -0.00937663      -0.00347789      -0.00937663
Pu       4.63522029       6.94334514       6.94334514      -0.00347789      -0.00937663      -0.00937663
Pu       4.64810501       4.64810501       9.23167148      -0.00180054      -0.00180054       0.00730387
Pu       6.95805541       6.95805541       9.25949857      -0.00340052      -0.00340052      -0.00091485
Pu       6.96025999       4.64490675      11.56039659      -0.00699036      -0.00385371       0.00349179
Pu       4.64490675       6.96025999      11.56039659      -0.00385371      -0.00699036       0.00349179
Pu       4.64366233       9.24392645      -0.01320132       0.00016603       0.00444142      -0.00145403
Pu       6.95879891      11.56724714      -0.01195252       0.00158467      -0.00298962       0.00007938
Pu       6.96012494       9.24768327       2.31395650      -0.00334942       0.00162698       0.00099938
Pu       4.68416718      11.50607867       2.32755751      -0.01763859       0.00916808      -0.00507650
Pu       4.64810501       9.23167148       4.64810501      -0.00180054       0.00730387      -0.00180054
Pu       6.96025999      11.56039659       4.64490675      -0.00699036       0.00349179      -0.00385371
Pu       6.95805541       9.25949857       6.95805541      -0.00340052      -0.00091485      -0.00340052
Pu       4.64490675      11.56039659       6.96025999      -0.00385371       0.00349179      -0.00699036
Pu       4.63824352       9.26270179       9.26270179      -0.00027948      -0.00267512      -0.00267512
Pu       6.96062858      11.57544740       9.26821056      -0.00304712      -0.00058980      -0.00310521
Pu       6.96062858       9.26821056      11.57544740      -0.00304712      -0.00310521      -0.00058980
Pu       4.63942439      11.56757953      11.56757953       0.00074424      -0.00099360      -0.00099360
Pu       9.26409837      -0.00220138      -0.00220138      -0.00295879      -0.00769036      -0.00769036
Pu      11.54407010       2.33246750      -0.01152709       0.02007309      -0.01170431      -0.00364803
Pu      11.54407010      -0.01152709       2.33246750       0.02007309      -0.00364803      -0.01170431
Pu       9.24742112       2.31950105       2.31950105       0.00425541      -0.00193628      -0.00193628
Pu       9.24392645      -0.01320132       4.64366233       0.00444142      -0.00145403       0.00016603
Pu      11.50607867       2.32755751       4.68416718       0.00916808      -0.00507650      -0.01763859
Pu      11.56724714      -0.01195252       6.95879891      -0.00298962       0.00007938       0.00158467
Pu       9.24768327       2.31395650       6.96012494       0.00162698       0.00099938      -0.00334942
Pu       9.27347926      -0.00419016       9.27347926      -0.00301877      -0.00042015      -0.00301877
Pu      11.57561640       2.31545611       9.25909885      -0.00496911      -0.00072940       0.00111080
Pu      11.60365692       0.01339083      11.60365692      -0.00984269      -0.00662770      -0.00984269
Pu       9.25909885       2.31545611      11.57561640       0.00111080      -0.00072940      -0.00496911
Pu       9.24392645       4.64366233      -0.01320132       0.00444142       0.00016603      -0.00145403
Pu      11.56724714       6.95879891      -0.01195252      -0.00298962       0.00158467       0.00007938
Pu      11.50607867       4.68416718       2.32755751       0.00916808      -0.01763859      -0.00507650
Pu       9.24768327       6.96012494       2.31395650       0.00162698      -0.00334942       0.00099938
Pu       9.23167148       4.64810501       4.64810501       0.00730387      -0.00180054      -0.00180054
Pu      11.56039659       6.96025999       4.64490675       0.00349179      -0.00699036      -0.00385371
Pu      11.56039659       4.64490675       6.96025999       0.00349179      -0.00385371      -0.00699036
Pu       9.25949857       6.95805541       6.95805541      -0.00091485      -0.00340052      -0.00340052
Pu       9.26270179       4.63824352       9.26270179      -0.00267512      -0.00027948      -0.00267512
Pu      11.57544740       6.96062858       9.26821056      -0.00058980      -0.00304712      -0.00310521
Pu      11.56757953       4.63942439      11.56757953      -0.00099360       0.00074424      -0.00099360
Pu       9.26821056       6.96062858      11.57544740      -0.00310521      -0.00304712      -0.00058980
Pu       9.27347926       9.27347926      -0.00419016      -0.00301877      -0.00301877      -0.00042015
Pu      11.60365692      11.60365692       0.01339083      -0.00984269      -0.00984269      -0.00662770
Pu      11.57561640       9.25909885       2.31545611      -0.00496911       0.00111080      -0.00072940
Pu       9.25909885      11.57561640       2.31545611       0.00111080      -0.00496911      -0.00072940
Pu       9.26270179       9.26270179       4.63824352      -0.00267512      -0.00267512      -0.00027948
Pu      11.56757953      11.56757953       4.63942439      -0.00099360      -0.00099360       0.00074424
Pu      11.57544740       9.26821056       6.96062858      -0.00058980      -0.00310521      -0.00304712
Pu       9.26821056      11.57544740       6.96062858      -0.00310521      -0.00058980      -0.00304712
Pu       9.27359033       9.27359033       9.27359033      -0.00223984      -0.00223984      -0.00223984
Pu      11.58832303      11.58832303       9.28086046      -0.00268499      -0.00268499      -0.00307229
Pu      11.58832303       9.28086046      11.58832303      -0.00268499      -0.00307229      -0.00268499
Pu       9.28086046      11.58832303      11.58832303      -0.00307229      -0.00268499      -0.00268499
Pu       2.14653379       2.14653379       2.14653379       0.16708352       0.16708352       0.16708352
109
Lattice="13.89768440882287 1.7e-15 1.2e-15 1.7e-15 13.89768440882286 1.9e-15 1.2e-15 1.9e-15 13.897684408822562" Properties=species:S:1:pos:R:3:forces:R:3 energy=-1670.4203781050207 pbc="T T T"
Pu       0.09403908       0.09403908       0.09403908       0.00154340       0.00154340       0.00154340
Pu       2.40670234       2.40670234      -0.41098254      -0.11601195      -0.11601195       0.07521546
Pu       2.40670234      -0.41098254       2.40670234      -0.11601195       0.07521546      -0.11601195
Pu      -0.41098254       2.40670234       2.40670234       0.07521546      -0.11601195      -0.11601195
Pu      -0.03062225      -0.03062225       4.63676993      -0.00510099      -0.00510099       0.02697019
Pu       2.28644076       2.28644076       4.67172094      -0.04548597      -0.04548597       0.11020913
Pu       2.31130156      -0.01431752       6.93301484      -0.00267405      -0.01010578       0.02530503
Pu      -0.01431752       2.31130156       6.93301484      -0.01010578      -0.00267405       0.02530503
Pu      -0.00002493      -0.00002493       9.26381102      -0.00581172      -0.00581172      -0.00176444
Pu       2.32186366       2.32186366       9.24437938      -0.00120326      -0.00120326       0.00135903
Pu       2.33863080      -0.00996649      11.53635335      -0.01623853      -0.01298749       0.00116108
Pu      -0.00996649       2.33863080      11.53635335      -0.01298749      -0.01623853       0.00116108
Pu      -0.03062225       4.63676993      -0.03062225      -0.00510099       0.02697019      -0.00510099
Pu       2.31130156       6.93301484      -0.01431752      -0.00267405       0.02530503      -0.01010578
Pu       2.28644076       4.67172094       2.28644076      -0.04548597       0.11020913      -0.04548597
Pu      -0.01431752       6.93301484       2.31130156      -0.01010578       0.02530503      -0.00267405
Pu      -0.03153681       4.64044916       4.64044916       0.02843480      -0.01691550      -0.01691550
Pu       2.30847792       6.93629750       4.63262406       0.00031819       0.00584146      -0.00013167
Pu       2.30847792       4.63262406       6.93629750       0.00031819      -0.00013167       0.00584146
Pu      -0.01355651       6.95350274       6.95350274       0.00220923      -0.00446580      -0.00446580
Pu      -0.01234426       4.64451470       9.24057332      -0.00153384       0.00122327       0.00132824
Pu       2.31379336       6.96184930       9.24726974       0.00072700      -0.00243152      -0.00068762
Pu       2.32958748       4.69306917      11.49993287      -0.00125302      -0.01638505       0.00462598
Pu      -0.01129735       6.95887296      11.56999363      -0.00061370      -0.00012340      -0.00388116
Pu      -0.00002493       9.26381102      -0.00002493      -0.00581172      -0.00176444      -0.00581172
Pu       2.33863080      11.53635335      -0.00996649      -0.01623853       0.00116108      -0.01298749
Pu       2.32186366       9.24437938       2.32186366      -0.00120326       0.00135903      -0.00120326
Pu      -0.00996649      11.53635335       2.33863080      -0.01298749       0.00116108      -0.01623853
Pu      -0.01234426       9.24057332       4.64451470      -0.00153384       0.00132824       0.00122327
Pu       2.32958748      11.49993287       4.69306917      -0.00125302       0.00462598      -0.01638505
Pu       2.31379336       9.24726974       6.96184930       0.00072700      -0.00068762      -0.00243152
Pu      -0.01129735      11.56999363       6.95887296      -0.00061370      -0.00388116      -0.00012340
Pu      -0.00389626       9.27525612       9.27525612      -0.00035291      -0.00217292      -0.00217292
Pu       2.31507216      11.57771780       9.25781050       0.00023605      -0.00501407      -0.00123439
Pu       2.31507216       9.25781050      11.57771780       0.00023605      -0.00123439      -0.00501407
Pu       0.01664236      11.60909503      11.60909503      -0.00413471      -0.00474854      -0.00474854
Pu       4.63676993      -0.03062225      -0.03062225       0.02697019      -0.00510099      -0.00510099
Pu       6.93301484       2.31130156      -0.01431752       0.02530503      -0.00267405      -0.01010578
Pu       6.93301484      -0.01431752       2.31130156       0.02530503      -0.01010578      -0.00267405
Pu       4.67172094       2.28644076       2.28644076       0.11020913      -0.04548597      -0.04548597
Pu       4.64044916      -0.03153681       4.64044916      -0.01691550       0.02843480      -0.01691550
Pu       6.93629750       2.30847792       4.63262406       0.00584146       0.00031819      -0.00013167
Pu       6.95350274      -0.01355651       6.95350274      -0.00446580       0.00220923      -0.00446580
Pu       4.63262406       2.30847792       6.93629750      -0.00013167       0.00031819       0.00584146
Pu       4.64451470      -0.01234426       9.24057332       0.00122327      -0.00153384       0.00132824
Pu       6.96184930       2.31379336       9.24726974      -0.00243152       0.00072700      -0.00068762
Pu       6.95887296      -0.01129735      11.56999363      -0.00012340      -0.00061370      -0.00388116
Pu       4.69306917       2.32958748      11.49993287      -0.01638505      -0.00125302       0.00462598
Pu       4.64044916       4.64044916      -0.03153681      -0.01691550      -0.01691550       0.02843480
Pu       6.95350274       6.95350274      -0.01355651      -0.00446580      -0.00446580       0.00220923
Pu       6.93629750       4.63262406       2.30847792       0.00584146      -0.00013167       0.00031819
Pu       4.63262406       6.93629750       2.30847792      -0.00013167       0.00584146       0.00031819
Pu       4.61772755       4.61772755       4.61772755      -0.12455007      -0.12455007      -0.12455007
Pu       6.94786020       6.94786020       4.63690618      -0.00937589      -0.00937589      -0.00252030
Pu       6.94786020       4.63690618       6.94786020      -0.00937589      -0.00252030      -0.00937589
Pu       4.63690618       6.94786020       6.94786020      -0.00252030      -0.00937589      -0.00937589
Pu       4.64939012       4.64939012       9.23015899      -0.00010170      -0.00010170       0.00173020
Pu       6.95984623       6.95984623       9.26063271      -0.00213254      -0.00213254      -0.00046992
Pu       6.96319740       4.64640480      11.55865219      -0.00816002      -0.00291826       0.00486530
Pu       4.64640480       6.96319740      11.55865219      -0.00291826      -0.00816002       0.00486530
Pu       4.64451470       9.24057332      -0.01234426       0.00122327       0.00132824      -0.00153384
Pu       6.95887296      11.56999363      -0.01129735      -0.00012340      -0.00388116      -0.00061370
Pu       6.96184930       9.24726974       2.31379336      -0.00243152      -0.00068762       0.00072700
Pu       4.69306917      11.49993287       2.32958748      -0.01638505       0.00462598      -0.00125302
Pu       4.64939012       9.23015899       4.64939012      -0.00010170       0.00173020      -0.00010170
Pu       6.96319740      11.55865219       4.64640480      -0.00816002       0.00486530      -0.00291826
Pu       6.95984623       9.26063271       6.95984623      -0.00213254      -0.00046992      -0.00213254
Pu       4.64640480      11.55865219       6.96319740      -0.00291826       0.00486530      -0.00816002
Pu       4.63845737       9.26451681       9.26451681       0.00027913      -0.00249728      -0.00249728
Pu       6.96131184      11.57640486       9.26994691      -0.00130402      -0.00046989      -0.00286180
Pu       6.96131184       9.26994691      11.57640486      -0.00130402      -0.00286180      -0.00046989
Pu       4.63850046      11.56855239      11.56855239       0.00239575      -0.00351206      -0.00351206
Pu       9.26381102      -0.00002493      -0.00002493      -0.00176444      -0.00581172      -0.00581172
Pu      11.53635335       2.33863080      -0.00996649       0.00116108      -0.01623853      -0.01298749
Pu      11.53635335      -0.00996649       2.33863080       0.00116108      -0.01298749      -0.01623853
Pu       9.24437938       2.32186366       2.32186366       0.00135903      -0.00120326      -0.00120326
Pu       9.24057332      -0.01234426       4.64451470       0.00132824      -0.00153384       0.00122327
Pu      11.49993287       2.32958748       4.69306917       0.00462598      -0.00125302      -0.01638505
Pu      11.56999363      -0.01129735       6.95887296      -0.00388116      -0.00061370      -0.00012340
Pu       9.24726974       2.31379336       6.96184930      -0.00068762       0.00072700      -0.00243152
Pu       9.27525612      -0.00389626       9.27525612      -0.00217292      -0.00035291      -0.00217292
Pu      11.57771780       2.31507216       9.25781050      -0.00501407       0.00023605      -0.00123439
Pu      11.60909503       0.01664236      11.60909503      -0.00474854      -0.00413471      -0.00474854
Pu       9.25781050       2.31507216      11.57771780      -0.00123439       0.00023605      -0.00501407
Pu       9.24057332       4.64451470      -0.01234426       0.00132824       0.00122327      -0.00153384
Pu      11.56999363       6.95887296      -0.01129735      -0.00388116      -0.00012340      -0.00061370
Pu      11.49993287       4.69306917       2.32958748       0.00462598      -0.01638505      -0.00125302
Pu       9.24726974       6.96184930       2.31379336      -0.00068762      -0.00243152       0.00072700
Pu       9.23015899       4.64939012       4.64939012       0.00173020      -0.00010170      -0.00010170
Pu      11.55865219       6.96319740       4.64640480       0.00486530      -0.00816002      -0.00291826
Pu      11.55865219       4.64640480       6.96319740       0.00486530      -0.00291826      -0.00816002
Pu       9.26063271       6.95984623       6.95984623      -0.00046992      -0.00213254      -0.00213254
Pu       9.26451681       4.63845737       9.26451681      -0.00249728       0.00027913      -0.00249728
Pu      11.57640486       6.96131184       9.26994691      -0.00046989      -0.00130402      -0.00286180
Pu      11.56855239       4.63850046      11.56855239      -0.00351206       0.00239575      -0.00351206
Pu       9.26994691       6.96131184      11.57640486      -0.00286180      -0.00130402      -0.00046989
Pu       9.27525612       9.27525612      -0.00389626      -0.00217292      -0.00217292      -0.00035291
Pu      11.60909503      11.60909503       0.01664236      -0.00474854      -0.00474854      -0.00413471
Pu      11.57771780       9.25781050       2.31507216      -0.00501407      -0.00123439       0.00023605
Pu       9.25781050      11.57771780       2.31507216      -0.00123439      -0.00501407       0.00023605
Pu       9.26451681       9.26451681       4.63845737      -0.00249728      -0.00249728       0.00027913
Pu      11.56855239      11.56855239       4.63850046      -0.00351206      -0.00351206       0.00239575
Pu      11.57640486       9.26994691       6.96131184      -0.00046989      -0.00286180      -0.00130402
Pu       9.26994691      11.57640486       6.96131184      -0.00286180      -0.00046989      -0.00130402
Pu       9.27505795       9.27505795       9.27505795      -0.00130757      -0.00130757      -0.00130757
Pu      11.59020777      11.59020777       9.28213754      -0.00176315      -0.00176315      -0.00105228
Pu      11.59020777       9.28213754      11.59020777      -0.00176315      -0.00105228      -0.00176315
Pu       9.28213754      11.59020777      11.59020777      -0.00105228      -0.00176315      -0.00176315
Pu       2.05906555       2.05906555       2.05906555       0.41915975       0.41915975       0.41915975
109
Lattice="13.89768440882287 1.7e-15 1.2e-15 1.7e-15 13.89768440882286 1.9e-15 1.2e-15 1.9e-15 13.897684408822562" Properties=species:S:1:pos:R:3:forces:R:3 energy=-1670.2406754377955 pbc="T T T"
Pu       0.09478827       0.09478827       0.09478827       0.01807716       0.01807716       0.01807716
Pu       2.43374264       2.43374264      -0.43009112      -0.10984219      -0.10984219       0.04681042
Pu       2.43374264      -0.43009112       2.43374264      -0.10984219       0.04681042      -0.10984219
Pu      -0.43009112       2.43374264       2.43374264       0.04681042      -0.10984219      -0.10984219
Pu      -0.02931872      -0.02931872       4.62994005      -0.00566599      -0.00566599       0.01486151
Pu       2.29763681       2.29763681       4.64537285      -0.04993131      -0.04993131       0.07899620
Pu       2.31161421      -0.01216226       6.92713131      -0.00189179      -0.00604140       0.01773296
Pu      -0.01216226       2.31161421       6.92713131      -0.00604140      -0.00189179       0.01773296
Pu       0.00159013       0.00159013       9.26393263      -0.00521594      -0.00521594      -0.00186098
Pu       2.32200531       2.32200531       9.24425933       0.00121957       0.00121957      -0.00266092
Pu       2.34271239      -0.00662619      11.53664866      -0.00504900      -0.01312113      -0.02607535
Pu      -0.00662619       2.34271239      11.53664866      -0.01312113      -0.00504900      -0.02607535
Pu      -0.02931872       4.62994005      -0.02931872      -0.00566599       0.01486151      -0.00566599
Pu       2.31161421       6.92713131      -0.01216226      -0.00189179       0.01773296      -0.00604140
Pu       2.29763681       4.64537285       2.29763681      -0.04993131       0.07899620      -0.04993131
Pu      -0.01216226       6.92713131       2.31161421      -0.00604140       0.01773296      -0.00189179
Pu      -0.03810589       4.64447350       4.64447350       0.04017826      -0.02925332      -0.02925332
Pu       2.30826526       6.93473418       4.63245544       0.00031852      -0.00026337      -0.00010185
Pu       2.30826526       4.63245544       6.93473418       0.00031852      -0.00010185      -0.00026337
Pu      -0.01400918       6.95482708       6.95482708       0.00194072      -0.00512388      -0.00512388
Pu      -0.01206533       4.64418287       9.24029972      -0.00101116       0.00298128      -0.00148881
Pu       2.31360720       6.96245883       9.24721282       0.00031131      -0.00147658      -0.00035299
Pu       2.33013317       4.69700752      11.49889756       0.00040292      -0.01084959       0.00118166
Pu      -0.01124252       6.95893877      11.57074281      -0.00039537      -0.00047071      -0.00213184
Pu       0.00159013       9.26393263       0.00159013      -0.00521594      -0.00186098      -0.00521594
Pu       2.34271239      11.53664866      -0.00662619      -0.00504900      -0.02607535      -0.01312113
Pu       2.32200531       9.24425933       2.32200531       0.00121957      -0.00266092       0.00121957
Pu      -0.00662619      11.53664866       2.34271239      -0.01312113      -0.02607535      -0.00504900
Pu      -0.01206533       9.24029972       4.64418287      -0.00101116      -0.00148881       0.00298128
Pu       2.33013317      11.49889756       4.69700752       0.00040292       0.00118166      -0.01084959
Pu       2.31360720       9.24721282       6.96245883       0.00031131      -0.00035299      -0.00147658
Pu      -0.01124252      11.57074281       6.95893877      -0.00039537      -0.00213184      -0.00047071
Pu      -0.00374307       9.27580490       9.27580490      -0.00038147      -0.00150737      -0.00150737
Pu       2.31503571      11.57893955       9.25826260       0.00036694      -0.00467031      -0.00276041
Pu       2.31503571       9.25826260      11.57893955       0.00036694      -0.00276041      -0.00467031
Pu       0.01767105      11.60969410      11.60969410      -0.00154384      -0.00123860      -0.00123860
Pu       4.62994005      -0.02931872      -0.02931872       0.01486151      -0.00566599      -0.00566599
Pu       6.92713131       2.31161421      -0.01216226       0.01773296      -0.00189179      -0.00604140
Pu       6.92713131      -0.01216226       2.31161421       0.01773296      -0.00604140      -0.00189179
Pu       4.64537285       2.29763681       2.29763681       0.07899620      -0.04993131      -0.04993131
Pu       4.64447350      -0.03810589       4.64447350      -0.02925332       0.04017826      -0.02925332
Pu       6.93473418       2.30826526       4.63245544      -0.00026337       0.00031852      -0.00010185
Pu       6.95482708      -0.01400918       6.95482708      -0.00512388       0.00194072      -0.00512388
Pu       4.63245544       2.30826526       6.93473418      -0.00010185       0.00031852      -0.00026337
Pu       4.64418287      -0.01206533       9.24029972       0.00298128      -0.00101116      -0.00148881
Pu       6.96245883       2.31360720       9.24721282      -0.00147658       0.00031131      -0.00035299
Pu       6.95893877      -0.01124252      11.57074281      -0.00047071      -0.00039537      -0.00213184
Pu       4.69700752       2.33013317      11.49889756      -0.01084959       0.00040292       0.00118166
Pu       4.64447350       4.64447350      -0.03810589      -0.02925332      -0.02925332       0.04017826
Pu       6.95482708       6.95482708      -0.01400918      -0.00512388      -0.00512388       0.00194072
Pu       6.93473418       4.63245544       2.30826526      -0.00026337      -0.00010185       0.00031852
Pu       4.63245544       6.93473418       2.30826526      -0.00010185      -0.00026337       0.00031852
Pu       4.64754434       4.64754434       4.64754434      -0.04545311      -0.04545311      -0.04545311
Pu       6.95029065       6.95029065       4.63726951      -0.00014304      -0.00014304       0.00060086
Pu       6.95029065       4.63726951       6.95029065      -0.00014304       0.00060086      -0.00014304
Pu       4.63726951       6.95029065       6.95029065       0.00060086      -0.00014304      -0.00014304
Pu       4.64943609       4.64943609       9.22955254       0.00019305       0.00019305      -0.00014455
Pu       6.96019322       6.96019322       9.26043493      -0.00063128      -0.00063128       0.00127345
Pu       6.96540282       4.64730750      11.55744080      -0.00797593      -0.00256311       0.00486787
Pu       4.64730750       6.96540282      11.55744080      -0.00256311      -0.00797593       0.00486787
Pu       4.64418287       9.24029972      -0.01206533       0.00298128      -0.00148881      -0.00101116
Pu       6.95893877      11.57074281      -0.01124252      -0.00047071      -0.00213184      -0.00039537
Pu       6.96245883       9.24721282       2.31360720      -0.00147658      -0.00035299       0.00031131
Pu       4.69700752      11.49889756       2.33013317      -0.01084959       0.00118166       0.00040292
Pu       4.64943609       9.22955254       4.64943609       0.00019305      -0.00014455       0.00019305
Pu       6.96540282      11.55744080       4.64730750      -0.00797593       0.00486787      -0.00256311
Pu       6.96019322       9.26043493       6.96019322      -0.00063128       0.00127345      -0.00063128
Pu       4.64730750      11.55744080       6.96540282      -0.00256311       0.00486787      -0.00797593
Pu       4.63838415       9.26486153       9.26486153       0.00049907      -0.00098268      -0.00098268
Pu       6.96160036      11.57645993       9.27059488      -0.00075816      -0.00022322      -0.00229378
Pu       6.96160036       9.27059488      11.57645993      -0.00075816      -0.00229378      -0.00022322
Pu       4.63791468      11.56920092      11.56920092       0.00275627      -0.00391880      -0.00391880
Pu       9.26393263       0.00159013       0.00159013      -0.00186098      -0.00521594      -0.00521594
Pu      11.53664866       2.34271239      -0.00662619      -0.02607535      -0.00504900      -0.01312113
Pu      11.53664866      -0.00662619       2.34271239      -0.02607535      -0.01312113      -0.00504900
Pu       9.24425933       2.32200531       2.32200531      -0.00266092       0.00121957       0.00121957
Pu       9.24029972      -0.01206533       4.64418287      -0.00148881      -0.00101116       0.00298128
Pu      11.49889756       2.33013317       4.69700752       0.00118166       0.00040292      -0.01084959
Pu      11.57074281      -0.01124252       6.95893877      -0.00213184      -0.00039537      -0.00047071
Pu       9.24721282       2.31360720       6.96245883      -0.00035299       0.00031131      -0.00147658
Pu       9.27580490      -0.00374307       9.27580490      -0.00150737      -0.00038147      -0.00150737
Pu      11.57893955       2.31503571       9.25826260      -0.00467031       0.00036694      -0.00276041
Pu      11.60969410       0.01767105      11.60969410      -0.00123860      -0.00154384      -0.00123860
Pu       9.25826260       2.31503571      11.57893955      -0.00276041       0.00036694      -0.00467031
Pu       9.24029972       4.64418287      -0.01206533      -0.00148881       0.00298128      -0.00101116
Pu      11.57074281       6.95893877      -0.01124252      -0.00213184      -0.00047071      -0.00039537
Pu      11.49889756       4.69700752       2.33013317       0.00118166      -0.01084959       0.00040292
Pu       9.24721282       6.96245883       2.31360720      -0.00035299      -0.00147658       0.00031131
Pu       9.22955254       4.64943609       4.64943609      -0.00014455       0.00019305       0.00019305
Pu      11.55744080       6.96540282       4.64730750       0.00486787      -0.00797593      -0.00256311
Pu      11.55744080       4.64730750       6.96540282       0.00486787      -0.00256311      -0.00797593
Pu       9.26043493       6.96019322       6.96019322       0.00127345      -0.00063128      -0.00063128
Pu       9.26486153       4.63838415       9.26486153      -0.00098268       0.00049907      -0.00098268
Pu      11.57645993       6.96160036       9.27059488      -0.00022322      -0.00075816      -0.00229378
Pu      11.56920092       4.63791468      11.56920092      -0.00391880       0.00275627      -0.00391880
Pu       9.27059488       6.96160036      11.57645993      -0.00229378      -0.00075816      -0.00022322
Pu       9.27580490       9.27580490      -0.00374307      -0.00150737      -0.00150737      -0.00038147
Pu      11.60969410      11.60969410       0.01767105      -0.00123860      -0.00123860      -0.00154384
Pu      11.57893955       9.25826260       2.31503571      -0.00467031      -0.00276041       0.00036694
Pu       9.25826260      11.57893955       2.31503571      -0.00276041      -0.00467031       0.00036694
Pu       9.26486153       9.26486153       4.63838415      -0.00098268      -0.00098268       0.00049907
Pu      11.56920092      11.56920092       4.63791468      -0.00391880      -0.00391880       0.00275627
Pu      11.57645993       9.27059488       6.96160036      -0.00022322      -0.00229378      -0.00075816
Pu       9.27059488      11.57645993       6.96160036      -0.00229378      -0.00022322      -0.00075816
Pu       9.27526178       9.27526178       9.27526178      -0.00065788      -0.00065788      -0.00065788
Pu      11.59071669      11.59071669       9.28258240      -0.00104661      -0.00104661      -0.00067975
Pu      11.59071669       9.28258240      11.59071669      -0.00104661      -0.00067975      -0.00104661
Pu       9.28258240      11.59071669      11.59071669      -0.00067975      -0.00104661      -0.00104661
Pu       1.96025457       1.96025457       1.96025457       0.40117016       0.40117016       0.40117016
109
Lattice="13.89768440882287 1.7e-15 1.2e-15 1.7e-15 13.89768440882286 1.9e-15 1.2e-15 1.9e-15 13.897684408822562" Properties=species:S:1:pos:R:3:forces:R:3 energy=-1670.1342994690808 pbc="T T T"
Pu       0.09107790       0.09107790       0.09107790       0.00943706       0.00943706       0.00943706
Pu       2.45942559       2.45942559      -0.44157060      -0.06471978      -0.06471978       0.01445840
Pu       2.45942559      -0.44157060       2.45942559      -0.06471978       0.01445840      -0.06471978
Pu      -0.44157060       2.45942559       2.45942559       0.01445840      -0.06471978      -0.06471978
Pu      -0.02796004      -0.02796004       4.62627982      -0.00358529      -0.00358529       0.00356721
Pu       2.30974494       2.30974494       4.62658267      -0.01353624      -0.01353624       0.04284970
Pu       2.31199464      -0.01076004       6.92299434      -0.00089027      -0.00236886       0.00894756
Pu      -0.01076004       2.31199464       6.92299434      -0.00236886      -0.00089027       0.00894756
Pu       0.00281810       0.00281810       9.26425504      -0.00335702      -0.00335702      -0.00189348
Pu       2.32170434       2.32170434       9.24489309       0.00184186       0.00184186      -0.00360529
Pu       2.34395636      -0.00348282      11.54299289       0.00557391      -0.00498213      -0.02727106
Pu      -0.00348282       2.34395636      11.54299289      -0.00498213       0.00557391      -0.02727106
Pu      -0.02796004       4.62627982      -0.02796004      -0.00358529       0.00356721      -0.00358529
Pu       2.31199464       6.92299434      -0.01076004      -0.00089027       0.00894756      -0.00236886
Pu       2.30974494       4.62658267       2.30974494      -0.01353624       0.04284970      -0.01353624
Pu      -0.01076004       6.92299434       2.31199464      -0.00236886       0.00894756      -0.00089027
Pu      -0.04760022       4.65138730       4.65138730       0.02598861      -0.02342621      -0.02342621
Pu       2.30817383       6.93478894       4.63247248       0.00042911      -0.00098544       0.00158915
Pu       2.30817383       4.63247248       6.93478894       0.00042911       0.00158915      -0.00098544
Pu      -0.01445730       6.95608645       6.95608645       0.00125732      -0.00402553      -0.00402553
Pu      -0.01186222       4.64348712       9.24064146      -0.00057865       0.00301941      -0.00213789
Pu       2.31349403       6.96281043       9.24726568       0.00005269      -0.00060864      -0.00006485
Pu       2.33014142       4.69953844      11.49867844       0.00082887      -0.00535841       0.00001280
Pu      -0.01117362       6.95910251      11.57120770      -0.00027328      -0.00047222      -0.00094864
Pu       0.00281810       9.26425504       0.00281810      -0.00335702      -0.00189348      -0.00335702
Pu       2.34395636      11.54299289      -0.00348282       0.00557391      -0.02727106      -0.00498213
Pu       2.32170434       9.24489309       2.32170434       0.00184186      -0.00360529       0.00184186
Pu      -0.00348282      11.54299289       2.34395636      -0.00498213      -0.02727106       0.00557391
Pu      -0.01186222       9.24064146       4.64348712      -0.00057865      -0.00213789       0.00301941
Pu       2.33014142      11.49867844       4.69953844       0.00082887       0.00001280      -0.00535841
Pu       2.31349403       9.24726568       6.96281043       0.00005269      -0.00006485      -0.00060864
Pu      -0.01117362      11.57120770       6.95910251      -0.00027328      -0.00094864      -0.00047222
Pu      -0.00364640       9.27616848       9.27616848      -0.00028916      -0.00095354      -0.00095354
Pu       2.31492749      11.58001997       9.25893582       0.00038085      -0.00323292      -0.00237321
Pu       2.31492749       9.25893582      11.58001997       0.00038085      -0.00237321      -0.00323292
Pu       0.01801026      11.60979782      11.60979782       0.00030019      -0.00024853      -0.00024853
Pu       4.62627982      -0.02796004      -0.02796004       0.00356721      -0.00358529      -0.00358529
Pu       6.92299434       2.31199464      -0.01076004       0.00894756      -0.00089027      -0.00236886
Pu       6.92299434      -0.01076004       2.31199464       0.00894756      -0.00236886      -0.00089027
Pu       4.62658267       2.30974494       2.30974494       0.04284970      -0.01353624      -0.01353624
Pu       4.65138730      -0.04760022       4.65138730      -0.02342621       0.02598861      -0.02342621
Pu       6.93478894       2.30817383       4.63247248      -0.00098544       0.00042911       0.00158915
Pu       6.95608645      -0.01445730       6.95608645      -0.00402553       0.00125732      -0.00402553
Pu       4.63247248       2.30817383       6.93478894       0.00158915       0.00042911      -0.00098544
Pu       4.64348712      -0.01186222       9.24064146       0.00301941      -0.00057865      -0.00213789
Pu       6.96281043       2.31349403       9.24726568      -0.00060864       0.00005269      -0.00006485
Pu       6.95910251      -0.01117362      11.57120770      -0.00047222      -0.00027328      -0.00094864
Pu       4.69953844       2.33014142      11.49867844      -0.00535841       0.00082887       0.00001280
Pu       4.65138730       4.65138730      -0.04760022      -0.02342621      -0.02342621       0.02598861
Pu       6.95608645       6.95608645      -0.01445730      -0.00402553      -0.00402553       0.00125732
Pu       6.93478894       4.63247248       2.30817383      -0.00098544       0.00158915       0.00042911
Pu       4.63247248       6.93478894       2.30817383       0.00158915      -0.00098544       0.00042911
Pu       4.65836549       4.65836549       4.65836549       0.03070396       0.03070396       0.03070396
Pu       6.95052839       6.95052839       4.63713038       0.00523067       0.00523067       0.00226913
Pu       6.95052839       4.63713038       6.95052839       0.00523067       0.00226913       0.00523067
Pu       4.63713038       6.95052839       6.95052839       0.00226913       0.00523067       0.00523067
Pu       4.64937467       4.64937467       9.22953359       0.00041963       0.00041963      -0.00133211
Pu       6.96034254       6.96034254       9.26010849       0.00015722       0.00015722       0.00184128
Pu       6.96729951       4.64796606      11.55629859      -0.00556056      -0.00182276       0.00342981
Pu       4.64796606       6.96729951      11.55629859      -0.00182276      -0.00556056       0.00342981
Pu       4.64348712       9.24064146      -0.01186222       0.00301941      -0.00213789      -0.00057865
Pu       6.95910251      11.57120770      -0.01117362      -0.00047222      -0.00094864      -0.00027328
Pu       6.96281043       9.24726568       2.31349403      -0.00060864      -0.00006485       0.00005269
Pu       4.69953844      11.49867844       2.33014142      -0.00535841       0.00001280       0.00082887
Pu       4.64937467       9.22953359       4.64937467       0.00041963      -0.00133211       0.00041963
Pu       6.96729951      11.55629859       4.64796606      -0.00556056       0.00342981      -0.00182276
Pu       6.96034254       9.26010849       6.96034254       0.00015722       0.00184128       0.00015722
Pu       4.64796606      11.55629859       6.96729951      -0.00182276       0.00342981      -0.00556056
Pu       4.63828192       9.26507613       9.26507613       0.00042269      -0.00024560      -0.00024560
Pu       6.96174654      11.57646759       9.27111300      -0.00046542      -0.00006220      -0.00161982
Pu       6.96174654       9.27111300      11.57646759      -0.00046542      -0.00161982      -0.00006220
Pu       4.63722237      11.57005112      11.57005112       0.00215998      -0.00316604      -0.00316604
Pu       9.26425504       0.00281810       0.00281810      -0.00189348      -0.00335702      -0.00335702
Pu      11.54299289       2.34395636      -0.00348282      -0.02727106       0.00557391      -0.00498213
Pu      11.54299289      -0.00348282       2.34395636      -0.02727106      -0.00498213       0.00557391
Pu       9.24489309       2.32170434       2.32170434      -0.00360529       0.00184186       0.00184186
Pu       9.24064146      -0.01186222       4.64348712      -0.00213789      -0.00057865       0.00301941
Pu      11.49867844       2.33014142       4.69953844       0.00001280       0.00082887      -0.00535841
Pu      11.57120770      -0.01117362       6.95910251      -0.00094864      -0.00027328      -0.00047222
Pu       9.24726568       2.31349403       6.96281043      -0.00006485       0.00005269      -0.00060864
Pu       9.27616848      -0.00364640       9.27616848      -0.00095354      -0.00028916      -0.00095354
Pu      11.58001997       2.31492749       9.25893582      -0.00323292       0.00038085      -0.00237321
Pu      11.60979782       0.01801026      11.60979782      -0.00024853       0.00030019      -0.00024853
Pu       9.25893582       2.31492749      11.58001997      -0.00237321       0.00038085      -0.00323292
Pu       9.24064146       4.64348712      -0.01186222      -0.00213789       0.00301941      -0.00057865
Pu      11.57120770       6.95910251      -0.01117362      -0.00094864      -0.00047222      -0.00027328
Pu      11.49867844       4.69953844       2.33014142       0.00001280      -0.00535841       0.00082887
Pu       9.24726568       6.96281043       2.31349403      -0.00006485      -0.00060864       0.00005269
Pu       9.22953359       4.64937467       4.64937467      -0.00133211       0.00041963       0.00041963
Pu      11.55629859       6.96729951       4.64796606       0.00342981      -0.00556056      -0.00182276
Pu      11.55629859       4.64796606       6.96729951       0.00342981      -0.00182276      -0.00556056
Pu       9.26010849       6.96034254       6.96034254       0.00184128       0.00015722       0.00015722
Pu       9.26507613       4.63828192       9.26507613      -0.00024560       0.00042269      -0.00024560
Pu      11.57646759       6.96174654       9.27111300      -0.00006220      -0.00046542      -0.00161982
Pu      11.57005112       4.63722237      11.57005112      -0.00316604       0.00215998      -0.00316604
Pu       9.27111300       6.96174654      11.57646759      -0.00161982      -0.00046542      -0.00006220
Pu       9.27616848       9.27616848      -0.00364640      -0.00095354      -0.00095354      -0.00028916
Pu      11.60979782      11.60979782       0.01801026      -0.00024853      -0.00024853       0.00030019
Pu      11.58001997       9.25893582       2.31492749      -0.00323292      -0.00237321       0.00038085
Pu       9.25893582      11.58001997       2.31492749      -0.00237321      -0.00323292       0.00038085
Pu       9.26507613       9.26507613       4.63828192      -0.00024560      -0.00024560       0.00042269
Pu      11.57005112      11.57005112       4.63722237      -0.00316604      -0.00316604       0.00215998
Pu      11.57646759       9.27111300       6.96174654      -0.00006220      -0.00161982      -0.00046542
Pu       9.27111300      11.57646759       6.96174654      -0.00161982      -0.00006220      -0.00046542
Pu       9.27536052       9.27536052       9.27536052      -0.00029538      -0.00029538      -0.00029538
Pu      11.59099563      11.59099563       9.28277482      -0.00050418      -0.00050418      -0.00022338
Pu      11.59099563       9.28277482      11.59099563      -0.00050418      -0.00022338      -0.00050418
Pu       9.28277482      11.59099563      11.59099563      -0.00022338      -0.00050418      -0.00050418
Pu       1.86532900       1.86532900       1.86532900       0.16824657       0.16824657       0.16824657
109
Lattice="13.89768440882287 1.7e-15 1.2e-15 1.7e-15 13.89768440882286 1.9e-15 1.2e-15 1.9e-15 13.897684408822562" Properties=species:S:1:pos:R:3:forces:R:3 energy=-1670.0935268886526 pbc="T T T"
Pu       0.08750557       0.08750557       0.08750557       0.00431523       0.00431523       0.00431523
Pu       2.49222763       2.49222763      -0.44969717      -0.02446551      -0.02446551       0.00205951
Pu       2.49222763      -0.44969717       2.49222763      -0.02446551       0.00205951      -0.02446551
Pu      -0.44969717       2.49222763       2.49222763       0.00205951      -0.02446551      -0.02446551
Pu      -0.02614088      -0.02614088       4.62408557      -0.00074839      -0.00074839      -0.00018107
Pu       2.31703322       2.31703322       4.60458536       0.00195432       0.00195432       0.01368576
Pu       2.31240776      -0.00953731       6.91847344      -0.00015085      -0.00037266       0.00249803
Pu      -0.00953731       2.31240776       6.91847344      -0.00037266      -0.00015085       0.00249803
Pu       0.00446381       0.00446381       9.26494344      -0.00123966      -0.00123966      -0.00098632
Pu       2.32079706       2.32079706       9.24676575       0.00106333       0.00106333      -0.00200126
Pu       2.34122379      -0.00089970      11.55727527       0.00469694      -0.00011489      -0.01171070
Pu      -0.00089970       2.34122379      11.55727527      -0.00011489       0.00469694      -0.01171070
Pu      -0.02614088       4.62408557      -0.02614088      -0.00074839      -0.00018107      -0.00074839
Pu       2.31240776       6.91847344      -0.00953731      -0.00015085       0.00249803      -0.00037266
Pu       2.31703322       4.60458536       2.31703322       0.00195432       0.01368576       0.00195432
Pu      -0.00953731       6.91847344       2.31240776      -0.00037266       0.00249803      -0.00015085
Pu      -0.06095223       4.66348364       4.66348364       0.00739630      -0.01028630      -0.01028630
Pu       2.30797636       6.93530542       4.63166830       0.00037260       0.00050960       0.00159785
Pu       2.30797636       4.63166830       6.93530542       0.00037260       0.00159785       0.00050960
Pu      -0.01508114       6.95816905       6.95816905       0.00040048      -0.00201027      -0.00201027
Pu      -0.01159619       4.64196132       9.24169467      -0.00022113       0.00157296      -0.00118732
Pu       2.31343391       6.96312730       9.24727333      -0.00000496      -0.00008402      -0.00004208
Pu       2.32982578       4.70220324      11.49872299       0.00046949      -0.00146543      -0.00047638
Pu      -0.01104082       6.95943132      11.57169192      -0.00016274      -0.00026085      -0.00024602
Pu       0.00446381       9.26494344       0.00446381      -0.00123966      -0.00098632      -0.00123966
Pu       2.34122379      11.55727527      -0.00089970       0.00469694      -0.01171070      -0.00011489
Pu       2.32079706       9.24676575       2.32079706       0.00106333      -0.00200126       0.00106333
Pu      -0.00089970      11.55727527       2.34122379      -0.00011489      -0.01171070       0.00469694
Pu      -0.01159619       9.24169467       4.64196132      -0.00022113      -0.00118732       0.00157296
Pu       2.32982578      11.49872299       4.70220324       0.00046949      -0.00047638      -0.00146543
Pu       2.31343391       9.24727333       6.96312730      -0.00000496      -0.00004208      -0.00008402
Pu      -0.01104082      11.57169192       6.95943132      -0.00016274      -0.00024602      -0.00026085
Pu      -0.00349945       9.27668105       9.27668105      -0.00015865      -0.00040022      -0.00040022
Pu       2.31465023      11.58163553       9.26014557       0.00021374      -0.00128501      -0.00111408
Pu       2.31465023       9.26014557      11.58163553       0.00021374      -0.00111408      -0.00128501
Pu       0.01777763      11.60964024      11.60964024       0.00079712       0.00006189       0.00006189
Pu       4.62408557      -0.02614088      -0.02614088      -0.00018107      -0.00074839      -0.00074839
Pu       6.91847344       2.31240776      -0.00953731       0.00249803      -0.00015085      -0.00037266
Pu       6.91847344      -0.00953731       2.31240776       0.00249803      -0.00037266      -0.00015085
Pu       4.60458536       2.31703322       2.31703322       0.01368576       0.00195432       0.00195432
Pu       4.66348364      -0.06095223       4.66348364      -0.01028630       0.00739630      -0.01028630
Pu       6.93530542       2.30797636       4.63166830       0.00050960       0.00037260       0.00159785
Pu       6.95816905      -0.01508114       6.95816905      -0.00201027       0.00040048      -0.00201027
Pu       4.63166830       2.30797636       6.93530542       0.00159785       0.00037260       0.00050960
Pu       4.64196132      -0.01159619       9.24169467       0.00157296      -0.00022113      -0.00118732
Pu       6.96312730       2.31343391       9.24727333      -0.00008402      -0.00000496      -0.00004208
Pu       6.95943132      -0.01104082      11.57169192      -0.00026085      -0.00016274      -0.00024602
Pu       4.70220324       2.32982578      11.49872299      -0.00146543       0.00046949      -0.00047638
Pu       4.66348364       4.66348364      -0.06095223      -0.01028630      -0.01028630       0.00739630
Pu       6.95816905       6.95816905      -0.01508114      -0.00201027      -0.00201027       0.00040048
Pu       6.93530542       4.63166830       2.30797636       0.00050960       0.00159785       0.00037260
Pu       4.63166830       6.93530542       2.30797636       0.00159785       0.00050960       0.00037260
Pu       4.64242062       4.64242062       4.64242062       0.01204623       0.01204623       0.01204623
Pu       6.94799488       6.94799488       4.63594599       0.00237489       0.00237489       0.00115686
Pu       6.94799488       4.63594599       6.94799488       0.00237489       0.00115686       0.00237489
Pu       4.63594599       6.94799488       6.94799488       0.00115686       0.00237489       0.00237489
Pu       4.64917066       4.64917066       9.23027505       0.00045139       0.00045139      -0.00066867
Pu       6.96027891       6.96027891       9.25915796       0.00015430       0.00015430       0.00089792
Pu       6.97014698       4.64893050      11.55457473      -0.00226275      -0.00087814       0.00142171
Pu       4.64893050       6.97014698      11.55457473      -0.00087814      -0.00226275       0.00142171
Pu       4.64196132       9.24169467      -0.01159619       0.00157296      -0.00118732      -0.00022113
Pu       6.95943132      11.57169192      -0.01104082      -0.00026085      -0.00024602      -0.00016274
Pu       6.96312730       9.24727333       2.31343391      -0.00008402      -0.00004208      -0.00000496
Pu       4.70220324      11.49872299       2.32982578      -0.00146543      -0.00047638       0.00046949
Pu       4.64917066       9.23027505       4.64917066       0.00045139      -0.00066867       0.00045139
Pu       6.97014698      11.55457473       4.64893050      -0.00226275       0.00142171      -0.00087814
Pu       6.96027891       9.25915796       6.96027891       0.00015430       0.00089792       0.00015430
Pu       4.64893050      11.55457473       6.97014698      -0.00087814       0.00142171      -0.00226275
Pu       4.63807550       9.26519945       9.26519945       0.00016808      -0.00007415      -0.00007415
Pu       6.96189654      11.57646807       9.27192882      -0.00021870      -0.00005016      -0.00075488
Pu       6.96189654       9.27192882      11.57646807      -0.00021870      -0.00075488      -0.00005016
Pu       4.63600899      11.57160029      11.57160029       0.00089912      -0.00142421      -0.00142421
Pu       9.26494344       0.00446381       0.00446381      -0.00098632      -0.00123966      -0.00123966
Pu      11.55727527       2.34122379      -0.00089970      -0.01171070       0.00469694      -0.00011489
Pu      11.55727527      -0.00089970       2.34122379      -0.01171070      -0.00011489       0.00469694
Pu       9.24676575       2.32079706       2.32079706      -0.00200126       0.00106333       0.00106333
Pu       9.24169467      -0.01159619       4.64196132      -0.00118732      -0.00022113       0.00157296
Pu      11.49872299       2.32982578       4.70220324      -0.00047638       0.00046949      -0.00146543
Pu      11.57169192      -0.01104082       6.95943132      -0.00024602      -0.00016274      -0.00026085
Pu       9.24727333       2.31343391       6.96312730      -0.00004208      -0.00000496      -0.00008402
Pu       9.27668105      -0.00349945       9.27668105      -0.00040022      -0.00015865      -0.00040022
Pu      11.58163553       2.31465023       9.26014557      -0.00128501       0.00021374      -0.00111408
Pu      11.60964024       0.01777763      11.60964024       0.00006189       0.00079712       0.00006189
Pu       9.26014557       2.31465023      11.58163553      -0.00111408       0.00021374      -0.00128501
Pu       9.24169467       4.64196132      -0.01159619      -0.00118732       0.00157296      -0.00022113
Pu      11.57169192       6.95943132      -0.01104082      -0.00024602      -0.00026085      -0.00016274
Pu      11.49872299       4.70220324       2.32982578      -0.00047638      -0.00146543       0.00046949
Pu       9.24727333       6.96312730       2.31343391      -0.00004208      -0.00008402      -0.00000496
Pu       9.23027505       4.64917066       4.64917066      -0.00066867       0.00045139       0.00045139
Pu      11.55457473       6.97014698       4.64893050       0.00142171      -0.00226275      -0.00087814
Pu      11.55457473       4.64893050       6.97014698       0.00142171      -0.00087814      -0.00226275
Pu       9.25915796       6.96027891       6.96027891       0.00089792       0.00015430       0.00015430
Pu       9.26519945       4.63807550       9.26519945      -0.00007415       0.00016808      -0.00007415
Pu      11.57646807       6.96189654       9.27192882      -0.00005016      -0.00021870      -0.00075488
Pu      11.57160029       4.63600899      11.57160029      -0.00142421       0.00089912      -0.00142421
Pu       9.27192882       6.96189654      11.57646807      -0.00075488      -0.00021870      -0.00005016
Pu       9.27668105       9.27668105      -0.00349945      -0.00040022      -0.00040022      -0.00015865
Pu      11.60964024      11.60964024       0.01777763       0.00006189       0.00006189       0.00079712
Pu      11.58163553       9.26014557       2.31465023      -0.00128501      -0.00111408       0.00021374
Pu       9.26014557      11.58163553       2.31465023      -0.00111408      -0.00128501       0.00021374
Pu       9.26519945       9.26519945       4.63807550      -0.00007415      -0.00007415       0.00016808
Pu      11.57160029      11.57160029       4.63600899      -0.00142421      -0.00142421       0.00089912
Pu      11.57646807       9.27192882       6.96189654      -0.00005016      -0.00075488      -0.00021870
Pu       9.27192882      11.57646807       6.96189654      -0.00075488      -0.00005016      -0.00021870
Pu       9.27545006       9.27545006       9.27545006      -0.00010834      -0.00010834      -0.00010834
Pu      11.59130300      11.59130300       9.28293229      -0.00011764      -0.00011764       0.00005769
Pu      11.59130300       9.28293229      11.59130300      -0.00011764       0.00005769      -0.00011764
Pu       9.28293229      11.59130300      11.59130300       0.00005769      -0.00011764      -0.00011764
Pu       1.77895673       1.77895673       1.77895673       0.04905815       0.04905815       0.04905815
109
Lattice="13.89768440882287 1.7e-15 1.2e-15 1.7e-15 13.89768440882286 1.9e-15 1.2e-15 1.9e-15 13.897684408822562" Properties=species:S:1:pos:R:3:forces:R:3 energy=-1670.0805991089032 pbc="T T T"
Pu       0.08432503       0.08432503       0.08432503       0.00211320       0.00211320       0.00211320
Pu       2.52916182       2.52916182      -0.45503244      -0.00425584      -0.00425584       0.00099097
Pu       2.52916182      -0.45503244       2.52916182      -0.00425584       0.00099097      -0.00425584
Pu      -0.45503244       2.52916182       2.52916182       0.00099097      -0.00425584      -0.00425584
Pu      -0.02484349      -0.02484349       4.62337692      -0.00003863      -0.00003863       0.00007709
Pu       2.31442768       2.31442768       4.58317432       0.00082936       0.00082936       0.00153901
Pu       2.31264051      -0.00902671       6.91479220      -0.00006247      -0.00019065       0.00048228
Pu      -0.00902671       2.31264051       6.91479220      -0.00019065      -0.00006247       0.00048228
Pu       0.00624318       0.00624318       9.26585012      -0.00020390      -0.00020390      -0.00013234
Pu       2.31925517       2.31925517       9.25006767       0.00012600       0.00012600      -0.00016537
Pu       2.33446244      -0.00075011      11.57557659       0.00077261       0.00037054      -0.00159284
Pu      -0.00075011       2.33446244      11.57557659       0.00037054       0.00077261      -0.00159284
Pu      -0.02484349       4.62337692      -0.02484349      -0.00003863       0.00007709      -0.00003863
Pu       2.31264051       6.91479220      -0.00902671      -0.00006247       0.00048228      -0.00019065
Pu       2.31442768       4.58317432       2.31442768       0.00082936       0.00153901       0.00082936
Pu      -0.00902671       6.91479220       2.31264051      -0.00019065       0.00048228      -0.00006247
Pu      -0.07229184       4.67942532       4.67942532       0.00024859      -0.00178896      -0.00178896
Pu       2.30751224       6.93469788       4.62940084      -0.00004192       0.00012724       0.00035875
Pu       2.30751224       4.62940084       6.93469788      -0.00004192       0.00035875       0.00012724
Pu      -0.01562066       6.96123059       6.96123059      -0.00000134      -0.00038372      -0.00038372
Pu      -0.01127153       4.63951176       9.24352797      -0.00007829       0.00016746      -0.00014751
Pu       2.31339503       6.96327026       9.24736469      -0.00003752       0.00002888      -0.00013605
Pu       2.32916888       4.70434448      11.49951384       0.00019387      -0.00022882      -0.00026854
Pu      -0.01087100       6.95984330      11.57207075      -0.00010073      -0.00001472      -0.00001465
Pu       0.00624318       9.26585012       0.00624318      -0.00020390      -0.00013234      -0.00020390
Pu       2.33446244      11.57557659      -0.00075011       0.00077261      -0.00159284       0.00037054
Pu       2.31925517       9.25006767       2.31925517       0.00012600      -0.00016537       0.00012600
Pu      -0.00075011      11.57557659       2.33446244       0.00037054      -0.00159284       0.00077261
Pu      -0.01127153       9.24352797       4.63951176      -0.00007829      -0.00014751       0.00016746
Pu       2.32916888      11.49951384       4.70434448       0.00019387      -0.00026854      -0.00022882
Pu       2.31339503       9.24736469       6.96327026      -0.00003752      -0.00013605       0.00002888
Pu      -0.01087100      11.57207075       6.95984330      -0.00010073      -0.00001465      -0.00001472
Pu      -0.00331024       9.27728850       9.27728850      -0.00007625      -0.00004523      -0.00004523
Pu       2.31415401      11.58352513       9.26178849      -0.00004661      -0.00016151      -0.00013422
Pu       2.31415401       9.26178849      11.58352513      -0.00004661      -0.00013422      -0.00016151
Pu       0.01635863      11.60885905      11.60885905       0.00017118       0.00010832       0.00010832
Pu       4.62337692      -0.02484349      -0.02484349       0.00007709      -0.00003863      -0.00003863
Pu       6.91479220       2.31264051      -0.00902671       0.00048228      -0.00006247      -0.00019065
Pu       6.91479220      -0.00902671       2.31264051       0.00048228      -0.00019065      -0.00006247
Pu       4.58317432       2.31442768       2.31442768       0.00153901       0.00082936       0.00082936
Pu       4.67942532      -0.07229184       4.67942532      -0.00178896       0.00024859      -0.00178896
Pu       6.93469788       2.30751224       4.62940084       0.00012724      -0.00004192       0.00035875
Pu       6.96123059      -0.01562066       6.96123059      -0.00038372      -0.00000134      -0.00038372
Pu       4.62940084       2.30751224       6.93469788       0.00035875      -0.00004192       0.00012724
Pu       4.63951176      -0.01127153       9.24352797       0.00016746      -0.00007829      -0.00014751
Pu       6.96327026       2.31339503       9.24736469       0.00002888      -0.00003752      -0.00013605
Pu       6.95984330      -0.01087100      11.57207075      -0.00001472      -0.00010073      -0.00001465
Pu       4.70434448       2.32916888      11.49951384      -0.00022882       0.00019387      -0.00026854
Pu       4.67942532       4.67942532      -0.07229184      -0.00178896      -0.00178896       0.00024859
Pu       6.96123059       6.96123059      -0.01562066      -0.00038372      -0.00038372      -0.00000134
Pu       6.93469788       4.62940084       2.30751224       0.00012724       0.00035875      -0.00004192
Pu       4.62940084       6.93469788       2.30751224       0.00035875       0.00012724      -0.00004192
Pu       4.62401795       4.62401795       4.62401795       0.00046540       0.00046540       0.00046540
Pu       6.94442768       6.94442768       4.63411713       0.00012082       0.00012082      -0.00001873
Pu       6.94442768       4.63411713       6.94442768       0.00012082      -0.00001873       0.00012082
Pu       4.63411713       6.94442768       6.94442768      -0.00001873       0.00012082       0.00012082
Pu       4.64849608       4.64849608       9.23145304       0.00015570       0.00015570      -0.00022424
Pu       6.96011130       6.96011130       9.25782569       0.00000747       0.00000747       0.00009268
Pu       6.97361194       4.65021696      11.55250998      -0.00023022      -0.00014280       0.00013676
Pu       4.65021696       6.97361194      11.55250998      -0.00014280      -0.00023022       0.00013676
Pu       4.63951176       9.24352797      -0.01127153       0.00016746      -0.00014751      -0.00007829
Pu       6.95984330      11.57207075      -0.01087100      -0.00001472      -0.00001465      -0.00010073
Pu       6.96327026       9.24736469       2.31339503       0.00002888      -0.00013605      -0.00003752
Pu       4.70434448      11.49951384       2.32916888      -0.00022882      -0.00026854       0.00019387
Pu       4.64849608       9.23145304       4.64849608       0.00015570      -0.00022424       0.00015570
Pu       6.97361194      11.55250998       4.65021696      -0.00023022       0.00013676      -0.00014280
Pu       6.96011130       9.25782569       6.96011130       0.00000747       0.00009268       0.00000747
Pu       4.65021696      11.55250998       6.97361194      -0.00014280       0.00013676      -0.00023022
Pu       4.63775189       9.26532107       9.26532107      -0.00005320      -0.00006970      -0.00006970
Pu       6.96208801      11.57645704       9.27308719      -0.00010382      -0.00007400      -0.00012343
Pu       6.96208801       9.27308719      11.57645704      -0.00010382      -0.00012343      -0.00007400
Pu       4.63444085      11.57369536      11.57369536       0.00000288      -0.00020337      -0.00020337
Pu       9.26585012       0.00624318       0.00624318      -0.00013234      -0.00020390      -0.00020390
Pu      11.57557659       2.33446244      -0.00075011      -0.00159284       0.00077261       0.00037054
Pu      11.57557659      -0.00075011       2.33446244      -0.00159284       0.00037054       0.00077261
Pu       9.25006767       2.31925517       2.31925517      -0.00016537       0.00012600       0.00012600
Pu       9.24352797      -0.01127153       4.63951176      -0.00014751      -0.00007829       0.00016746
Pu      11.49951384       2.32916888       4.70434448      -0.00026854       0.00019387      -0.00022882
Pu      11.57207075      -0.01087100       6.95984330      -0.00001465      -0.00010073      -0.00001472
Pu       9.24736469       2.31339503       6.96327026      -0.00013605      -0.00003752       0.00002888
Pu       9.27728850      -0.00331024       9.27728850      -0.00004523      -0.00007625      -0.00004523
Pu      11.58352513       2.31415401       9.26178849      -0.00016151      -0.00004661      -0.00013422
Pu      11.60885905       0.01635863      11.60885905       0.00010832       0.00017118       0.00010832
Pu       9.26178849       2.31415401      11.58352513      -0.00013422      -0.00004661      -0.00016151
Pu       9.24352797       4.63951176      -0.01127153      -0.00014751       0.00016746      -0.00007829
Pu      11.57207075       6.95984330      -0.01087100      -0.00001465      -0.00001472      -0.00010073
Pu      11.49951384       4.70434448       2.32916888      -0.00026854      -0.00022882       0.00019387
Pu       9.24736469       6.96327026       2.31339503      -0.00013605       0.00002888      -0.00003752
Pu       9.23145304       4.64849608       4.64849608      -0.00022424       0.00015570       0.00015570
Pu      11.55250998       6.97361194       4.65021696       0.00013676      -0.00023022      -0.00014280
Pu      11.55250998       4.65021696       6.97361194       0.00013676      -0.00014280      -0.00023022
Pu       9.25782569       6.96011130       6.96011130       0.00009268       0.00000747       0.00000747
Pu       9.26532107       4.63775189       9.26532107      -0.00006970      -0.00005320      -0.00006970
Pu      11.57645704       6.96208801       9.27308719      -0.00007400      -0.00010382      -0.00012343
Pu      11.57369536       4.63444085      11.57369536      -0.00020337       0.00000288      -0.00020337
Pu       9.27308719       6.96208801      11.57645704      -0.00012343      -0.00010382      -0.00007400
Pu       9.27728850       9.27728850      -0.00331024      -0.00004523      -0.00004523      -0.00007625
Pu      11.60885905      11.60885905       0.01635863       0.00010832       0.00010832       0.00017118
Pu      11.58352513       9.26178849       2.31415401      -0.00016151      -0.00013422      -0.00004661
Pu       9.26178849      11.58352513       2.31415401      -0.00013422      -0.00016151      -0.00004661
Pu       9.26532107       9.26532107       4.63775189      -0.00006970      -0.00006970      -0.00005320
Pu      11.57369536      11.57369536       4.63444085      -0.00020337      -0.00020337       0.00000288
Pu      11.57645704       9.27308719       6.96208801      -0.00007400      -0.00012343      -0.00010382
Pu       9.27308719      11.57645704       6.96208801      -0.00012343      -0.00007400      -0.00010382
Pu       9.27551462       9.27551462       9.27551462      -0.00006280      -0.00006280      -0.00006280
Pu      11.59149016      11.59149016       9.28287833       0.00001086       0.00001086       0.00003770
Pu      11.59149016       9.28287833      11.59149016       0.00001086       0.00003770       0.00001086
Pu       9.28287833      11.59149016      11.59149016       0.00003770       0.00001086       0.00001086
Pu       1.70411978       1.70411978       1.70411978       0.00884305       0.00884305       0.00884305
109
Lattice="13.89768440882287 1.7e-15 1.2e-15 1.7e-15 13.89768440882286 1.9e-15 1.2e-15 1.9e-15 13.897684408822562" Properties=species:S:1:pos:R:3:forces:R:3 energy=-1670.0820124703991 pbc="T T T"
Pu       0.07093415       0.07093415       0.07093415      -0.00209466      -0.00209466      -0.00209466
Pu       2.56620188       2.56620188      -0.46658990       0.00515055       0.00515055      -0.00150156
Pu       2.56620188      -0.46658990       2.56620188       0.00515055      -0.00150156       0.00515055
Pu      -0.46658990       2.56620188       2.56620188      -0.00150156       0.00515055       0.00515055
Pu      -0.02390449      -0.02390449       4.62030467       0.00017331       0.00017331      -0.00043718
Pu       2.30799130       2.30799130       4.56475828      -0.00081838      -0.00081838      -0.00257478
Pu       2.31280992      -0.00797899       6.91175990      -0.00002076       0.00017486      -0.00041081
Pu      -0.00797899       2.31280992       6.91175990       0.00017486      -0.00002076      -0.00041081
Pu       0.00762689       0.00762689       9.26511807       0.00018456       0.00018456      -0.00005861
Pu       2.31818894       2.31818894       9.25324284      -0.00017378      -0.00017378       0.00053006
Pu       2.32886026      -0.00439106      11.58826733      -0.00088918      -0.00050384       0.00157875
Pu      -0.00439106       2.32886026      11.58826733      -0.00050384      -0.00088918       0.00157875
Pu      -0.02390449       4.62030467      -0.02390449       0.00017331      -0.00043718       0.00017331
Pu       2.31280992       6.91175990      -0.00797899      -0.00002076      -0.00041081       0.00017486
Pu       2.30799130       4.56475828       2.30799130      -0.00081838      -0.00257478      -0.00081838
Pu      -0.00797899       6.91175990       2.31280992       0.00017486      -0.00041081      -0.00002076
Pu      -0.07282074       4.69471730       4.69471730      -0.00008417       0.00212217       0.00212217
Pu       2.30864224       6.93462564       4.62815170       0.00019645       0.00002376      -0.00009252
Pu       2.30864224       4.62815170       6.93462564       0.00019645      -0.00009252       0.00002376
Pu      -0.01507366       6.96445970       6.96445970       0.00010790       0.00046573       0.00046573
Pu      -0.01094134       4.63758084       9.24481879       0.00001042      -0.00031416       0.00021888
Pu       2.31363015       6.96338561       9.24828365       0.00001104       0.00002886       0.00015519
Pu       2.32747417       4.70553332      11.50282798      -0.00021667       0.00015642       0.00049674
Pu      -0.01072386       6.95977415      11.57266803      -0.00004904      -0.00009141       0.00007984
Pu       0.00762689       9.26511807       0.00762689       0.00018456      -0.00005861       0.00018456
Pu       2.32886026      11.58826733      -0.00439106      -0.00088918       0.00157875      -0.00050384
Pu       2.31818894       9.25324284       2.31818894      -0.00017378       0.00053006      -0.00017378
Pu      -0.00439106      11.58826733       2.32886026      -0.00050384       0.00157875      -0.00088918
Pu      -0.01094134       9.24481879       4.63758084       0.00001042       0.00021888      -0.00031416
Pu       2.32747417      11.50282798       4.70553332      -0.00021667       0.00049674       0.00015642
Pu       2.31363015       9.24828365       6.96338561       0.00001104       0.00015519       0.00002886
Pu      -0.01072386      11.57266803       6.95977415      -0.00004904       0.00007984      -0.00009141
Pu      -0.00307038       9.27747532       9.27747532      -0.00004063      -0.00001500      -0.00001500
Pu       2.31385354      11.58479456       9.26240875      -0.00009510       0.00016905       0.00004833
Pu       2.31385354       9.26240875      11.58479456      -0.00009510       0.00004833       0.00016905
Pu       0.01392737      11.60592575      11.60592575      -0.00037875      -0.00034928      -0.00034928
Pu       4.62030467      -0.02390449      -0.02390449      -0.00043718       0.00017331       0.00017331
Pu       6.91175990       2.31280992      -0.00797899      -0.00041081      -0.00002076       0.00017486
Pu       6.91175990      -0.00797899       2.31280992      -0.00041081       0.00017486      -0.00002076
Pu       4.56475828       2.30799130       2.30799130      -0.00257478      -0.00081838      -0.00081838
Pu       4.69471730      -0.07282074       4.69471730       0.00212217      -0.00008417       0.00212217
Pu       6.93462564       2.30864224       4.62815170       0.00002376       0.00019645      -0.00009252
Pu       6.96445970      -0.01507366       6.96445970       0.00046573       0.00010790       0.00046573
Pu       4.62815170       2.30864224       6.93462564      -0.00009252       0.00019645       0.00002376
Pu       4.63758084      -0.01094134       9.24481879      -0.00031416       0.00001042       0.00021888
Pu       6.96338561       2.31363015       9.24828365       0.00002886       0.00001104       0.00015519
Pu       6.95977415      -0.01072386      11.57266803      -0.00009141      -0.00004904       0.00007984
Pu       4.70553332       2.32747417      11.50282798       0.00015642      -0.00021667       0.00049674
Pu       4.69471730       4.69471730      -0.07282074       0.00212217       0.00212217      -0.00008417
Pu       6.96445970       6.96445970      -0.01507366       0.00046573       0.00046573       0.00010790
Pu       6.93462564       4.62815170       2.30864224       0.00002376      -0.00009252       0.00019645
Pu       4.62815170       6.93462564       2.30864224      -0.00009252       0.00002376       0.00019645
Pu       4.62228288       4.62228288       4.62228288      -0.00012388      -0.00012388      -0.00012388
Pu       6.94416756       6.94416756       4.63366993       0.00002945       0.00002945      -0.00009549
Pu       6.94416756       4.63366993       6.94416756       0.00002945      -0.00009549       0.00002945
Pu       4.63366993       6.94416756       6.94416756      -0.00009549       0.00002945       0.00002945
Pu       4.64748402       4.64748402       9.23425812      -0.00008227      -0.00008227       0.00048313
Pu       6.96015288       6.96015288       9.25756059       0.00003201       0.00003201      -0.00000350
Pu       6.97563734       4.65132833      11.55188197       0.00030941       0.00013334      -0.00006127
Pu       4.65132833       6.97563734      11.55188197       0.00013334       0.00030941      -0.00006127
Pu       4.63758084       9.24481879      -0.01094134      -0.00031416       0.00021888       0.00001042
Pu       6.95977415      11.57266803      -0.01072386      -0.00009141       0.00007984      -0.00004904
Pu       6.96338561       9.24828365       2.31363015       0.00002886       0.00015519       0.00001104
Pu       4.70553332      11.50282798       2.32747417       0.00015642       0.00049674      -0.00021667
Pu       4.64748402       9.23425812       4.64748402      -0.00008227       0.00048313      -0.00008227
Pu       6.97563734      11.55188197       4.65132833       0.00030941      -0.00006127       0.00013334
Pu       6.96015288       9.25756059       6.96015288       0.00003201      -0.00000350       0.00003201
Pu       4.65132833      11.55188197       6.97563734       0.00013334      -0.00006127       0.00030941
Pu       4.63765403       9.26579748       9.26579748      -0.00006243       0.00006565       0.00006565
Pu       6.96226448      11.57657898       9.27399351      -0.00002824      -0.00002045       0.00015615
Pu       6.96226448       9.27399351      11.57657898      -0.00002824       0.00015615      -0.00002045
Pu       4.63363371      11.57502369      11.57502369      -0.00021377       0.00010252       0.00010252
Pu       9.26511807       0.00762689       0.00762689      -0.00005861       0.00018456       0.00018456
Pu      11.58826733       2.32886026      -0.00439106       0.00157875      -0.00088918      -0.00050384
Pu      11.58826733      -0.00439106       2.32886026       0.00157875      -0.00050384      -0.00088918
Pu       9.25324284       2.31818894       2.31818894       0.00053006      -0.00017378      -0.00017378
Pu       9.24481879      -0.01094134       4.63758084       0.00021888       0.00001042      -0.00031416
Pu      11.50282798       2.32747417       4.70553332       0.00049674      -0.00021667       0.00015642
Pu      11.57266803      -0.01072386       6.95977415       0.00007984      -0.00004904      -0.00009141
Pu       9.24828365       2.31363015       6.96338561       0.00015519       0.00001104       0.00002886
Pu       9.27747532      -0.00307038       9.27747532      -0.00001500      -0.00004063      -0.00001500
Pu      11.58479456       2.31385354       9.26240875       0.00016905      -0.00009510       0.00004833
Pu      11.60592575       0.01392737      11.60592575      -0.00034928      -0.00037875      -0.00034928
Pu       9.26240875       2.31385354      11.58479456       0.00004833      -0.00009510       0.00016905
Pu       9.24481879       4.63758084      -0.01094134       0.00021888      -0.00031416       0.00001042
Pu      11.57266803       6.95977415      -0.01072386       0.00007984      -0.00009141      -0.00004904
Pu      11.50282798       4.70553332       2.32747417       0.00049674       0.00015642      -0.00021667
Pu       9.24828365       6.96338561       2.31363015       0.00015519       0.00002886       0.00001104
Pu       9.23425812       4.64748402       4.64748402       0.00048313      -0.00008227      -0.00008227
Pu      11.55188197       6.97563734       4.65132833      -0.00006127       0.00030941       0.00013334
Pu      11.55188197       4.65132833       6.97563734      -0.00006127       0.00013334       0.00030941
Pu       9.25756059       6.96015288       6.96015288      -0.00000350       0.00003201       0.00003201
Pu       9.26579748       4.63765403       9.26579748       0.00006565      -0.00006243       0.00006565
Pu      11.57657898       6.96226448       9.27399351      -0.00002045      -0.00002824       0.00015615
Pu      11.57502369       4.63363371      11.57502369       0.00010252      -0.00021377       0.00010252
Pu       9.27399351       6.96226448      11.57657898       0.00015615      -0.00002824      -0.00002045
Pu       9.27747532       9.27747532      -0.00307038      -0.00001500      -0.00001500      -0.00004063
Pu      11.60592575      11.60592575       0.01392737      -0.00034928      -0.00034928      -0.00037875
Pu      11.58479456       9.26240875       2.31385354       0.00016905       0.00004833      -0.00009510
Pu       9.26240875      11.58479456       2.31385354       0.00004833       0.00016905      -0.00009510
Pu       9.26579748       9.26579748       4.63765403       0.00006565       0.00006565      -0.00006243
Pu      11.57502369      11.57502369       4.63363371       0.00010252       0.00010252      -0.00021377
Pu      11.57657898       9.27399351       6.96226448      -0.00002045       0.00015615      -0.00002824
Pu       9.27399351      11.57657898       6.96226448       0.00015615      -0.00002045      -0.00002824
Pu       9.27550375       9.27550375       9.27550375      -0.00000951      -0.00000951      -0.00000951
Pu      11.59134474      11.59134474       9.28222899      -0.00006952      -0.00006952      -0.00011172
Pu      11.59134474       9.28222899      11.59134474      -0.00006952      -0.00011172      -0.00006952
Pu       9.28222899      11.59134474      11.59134474      -0.00011172      -0.00006952      -0.00006952
Pu       1.63300134       1.63300134       1.63300134      -0.00927393      -0.00927393      -0.00927393
109
Lattice="13.89768440882287 1.7e-15 1.2e-15 1.7e-15 13.89768440882286 1.9e-15 1.2e-15 1.9e-15 13.897684408822562" Properties=species:S:1:pos:R:3:forces:R:3 energy=-1670.0865854242666 pbc="T T T"
Pu       0.05578532       0.05578532       0.05578532      -0.00587938      -0.00587938      -0.00587938
Pu       2.60143249       2.60143249      -0.49331280       0.01280181       0.01280181      -0.00975504
Pu       2.60143249      -0.49331280       2.60143249       0.01280181      -0.00975504       0.01280181
Pu      -0.49331280       2.60143249       2.60143249      -0.00975504       0.01280181       0.01280181
Pu      -0.02327666      -0.02327666       4.61792663       0.00018841       0.00018841      -0.00096530
Pu       2.30397498       2.30397498       4.56055527      -0.00143411      -0.00143411      -0.00126231
Pu       2.31279190      -0.00726950       6.91020967       0.00001177       0.00038800      -0.00058673
Pu      -0.00726950       2.31279190       6.91020967       0.00038800       0.00001177      -0.00058673
Pu       0.00846861       0.00846861       9.26465755       0.00025771       0.00025771      -0.00011747
Pu       2.31724037       2.31724037       9.25604031      -0.00035972      -0.00035972       0.00097758
Pu       2.32613008      -0.00852545      11.59651620      -0.00111697      -0.00153404       0.00298430
Pu      -0.00852545       2.32613008      11.59651620      -0.00153404      -0.00111697       0.00298430
Pu      -0.02327666       4.61792663      -0.02327666       0.00018841      -0.00096530       0.00018841
Pu       2.31279190       6.91020967      -0.00726950       0.00001177      -0.00058673       0.00038800
Pu       2.30397498       4.56055527       2.30397498      -0.00143411      -0.00126231      -0.00143411
Pu      -0.00726950       6.91020967       2.31279190       0.00038800      -0.00058673       0.00001177
Pu      -0.06503699       4.70420794       4.70420794       0.00288510       0.00363228       0.00363228
Pu       2.31072187       6.93659856       4.62814433       0.00075347       0.00075248      -0.00003864
Pu       2.31072187       4.62814433       6.93659856       0.00075347      -0.00003864       0.00075248
Pu      -0.01387027       6.96643499       6.96643499       0.00042390       0.00077923       0.00077923
Pu      -0.01111263       4.63650708       9.24536514      -0.00008855      -0.00039712       0.00026256
Pu       2.31382748       6.96332326       9.24961822       0.00005144       0.00001263       0.00056094
Pu       2.32248008       4.70642402      11.50809305      -0.00186740       0.00035817       0.00202891
Pu      -0.01118900       6.96024685      11.57302338      -0.00026841       0.00008017       0.00009042
Pu       0.00846861       9.26465755       0.00846861       0.00025771      -0.00011747       0.00025771
Pu       2.32613008      11.59651620      -0.00852545      -0.00111697       0.00298430      -0.00153404
Pu       2.31724037       9.25604031       2.31724037      -0.00035972       0.00097758      -0.00035972
Pu      -0.00852545      11.59651620       2.32613008      -0.00153404       0.00298430      -0.00111697
Pu      -0.01111263       9.24536514       4.63650708      -0.00008855       0.00026256      -0.00039712
Pu       2.32248008      11.50809305       4.70642402      -0.00186740       0.00202891       0.00035817
Pu       2.31382748       9.24961822       6.96332326       0.00005144       0.00056094       0.00001263
Pu      -0.01118900      11.57302338       6.96024685      -0.00026841       0.00009042       0.00008017
Pu      -0.00303002       9.27702640       9.27702640      -0.00004359      -0.00020729      -0.00020729
Pu       2.31393835      11.58539862       9.26250557      -0.00002968       0.00015941      -0.00000730
Pu       2.31393835       9.26250557      11.58539862      -0.00002968      -0.00000730       0.00015941
Pu       0.01121424      11.60172129      11.60172129      -0.00108849      -0.00146646      -0.00146646
Pu       4.61792663      -0.02327666      -0.02327666      -0.00096530       0.00018841       0.00018841
Pu       6.91020967       2.31279190      -0.00726950      -0.00058673       0.00001177       0.00038800
Pu       6.91020967      -0.00726950       2.31279190      -0.00058673       0.00038800       0.00001177
Pu       4.56055527       2.30397498       2.30397498      -0.00126231      -0.00143411      -0.00143411
Pu       4.70420794      -0.06503699       4.70420794       0.00363228       0.00288510       0.00363228
Pu       6.93659856       2.31072187       4.62814433       0.00075248       0.00075347      -0.00003864
Pu       6.96643499      -0.01387027       6.96643499       0.00077923       0.00042390       0.00077923
Pu       4.62814433       2.31072187       6.93659856      -0.00003864       0.00075347       0.00075248
Pu       4.63650708      -0.01111263       9.24536514      -0.00039712      -0.00008855       0.00026256
Pu       6.96332326       2.31382748       9.24961822       0.00001263       0.00005144       0.00056094
Pu       6.96024685      -0.01118900      11.57302338       0.00008017      -0.00026841       0.00009042
Pu       4.70642402       2.32248008      11.50809305       0.00035817      -0.00186740       0.00202891
Pu       4.70420794       4.70420794      -0.06503699       0.00363228       0.00363228       0.00288510
Pu       6.96643499       6.96643499      -0.01387027       0.00077923       0.00077923       0.00042390
Pu       6.93659856       4.62814433       2.31072187       0.00075248      -0.00003864       0.00075347
Pu       4.62814433       6.93659856       2.31072187      -0.00003864       0.00075248       0.00075347
Pu       4.62114108       4.62114108       4.62114108      -0.00033618      -0.00033618      -0.00033618
Pu       6.94424426       6.94424426       4.63346487       0.00009530       0.00009530      -0.00003789
Pu       6.94424426       4.63346487       6.94424426       0.00009530      -0.00003789       0.00009530
Pu       4.63346487       6.94424426       6.94424426      -0.00003789       0.00009530       0.00009530
Pu       4.64569807       4.64569807       9.23940985      -0.00058577      -0.00058577       0.00204169
Pu       6.95941247       6.95941247       9.25763365      -0.00028020      -0.00028020       0.00002108
Pu       6.97496682       4.65125002      11.55295686      -0.00020254       0.00000159       0.00040547
Pu       4.65125002       6.97496682      11.55295686       0.00000159      -0.00020254       0.00040547
Pu       4.63650708       9.24536514      -0.01111263      -0.00039712       0.00026256      -0.00008855
Pu       6.96024685      11.57302338      -0.01118900       0.00008017       0.00009042      -0.00026841
Pu       6.96332326       9.24961822       2.31382748       0.00001263       0.00056094       0.00005144
Pu       4.70642402      11.50809305       2.32248008       0.00035817       0.00202891      -0.00186740
Pu       4.64569807       9.23940985       4.64569807      -0.00058577       0.00204169      -0.00058577
Pu       6.97496682      11.55295686       4.65125002      -0.00020254       0.00040547       0.00000159
Pu       6.95941247       9.25763365       6.95941247      -0.00028020       0.00002108      -0.00028020
Pu       4.65125002      11.55295686       6.97496682       0.00000159       0.00040547      -0.00020254
Pu       4.63750628       9.26587666       9.26587666      -0.00013640       0.00001851       0.00001851
Pu       6.96200100      11.57640206       9.27384291      -0.00014401      -0.00007057      -0.00000125
Pu       6.96200100       9.27384291      11.57640206      -0.00014401      -0.00000125      -0.00007057
Pu       4.63374058      11.57535088      11.57535088      -0.00005276       0.00006196       0.00006196
Pu       9.26465755       0.00846861       0.00846861      -0.00011747       0.00025771       0.00025771
Pu      11.59651620       2.32613008      -0.00852545       0.00298430      -0.00111697      -0.00153404
Pu      11.59651620      -0.00852545       2.32613008       0.00298430      -0.00153404      -0.00111697
Pu       9.25604031       2.31724037       2.31724037       0.00097758      -0.00035972      -0.00035972
Pu       9.24536514      -0.01111263       4.63650708       0.00026256      -0.00008855      -0.00039712
Pu      11.50809305       2.32248008       4.70642402       0.00202891      -0.00186740       0.00035817
Pu      11.57302338      -0.01118900       6.96024685       0.00009042      -0.00026841       0.00008017
Pu       9.24961822       2.31382748       6.96332326       0.00056094       0.00005144       0.00001263
Pu       9.27702640      -0.00303002       9.27702640      -0.00020729      -0.00004359      -0.00020729
Pu      11.58539862       2.31393835       9.26250557       0.00015941      -0.00002968      -0.00000730
Pu      11.60172129       0.01121424      11.60172129      -0.00146646      -0.00108849      -0.00146646
Pu       9.26250557       2.31393835      11.58539862      -0.00000730      -0.00002968       0.00015941
Pu       9.24536514       4.63650708      -0.01111263       0.00026256      -0.00039712      -0.00008855
Pu      11.57302338       6.96024685      -0.01118900       0.00009042       0.00008017      -0.00026841
Pu      11.50809305       4.70642402       2.32248008       0.00202891       0.00035817      -0.00186740
Pu       9.24961822       6.96332326       2.31382748       0.00056094       0.00001263       0.00005144
Pu       9.23940985       4.64569807       4.64569807       0.00204169      -0.00058577      -0.00058577
Pu      11.55295686       6.97496682       4.65125002       0.00040547      -0.00020254       0.00000159
Pu      11.55295686       4.65125002       6.97496682       0.00040547       0.00000159      -0.00020254
Pu       9.25763365       6.95941247       6.95941247       0.00002108      -0.00028020      -0.00028020
Pu       9.26587666       4.63750628       9.26587666       0.00001851      -0.00013640       0.00001851
Pu      11.57640206       6.96200100       9.27384291      -0.00007057      -0.00014401      -0.00000125
Pu      11.57535088       4.63374058      11.57535088       0.00006196      -0.00005276       0.00006196
Pu       9.27384291       6.96200100      11.57640206      -0.00000125      -0.00014401      -0.00007057
Pu       9.27702640       9.27702640      -0.00303002      -0.00020729      -0.00020729      -0.00004359
Pu      11.60172129      11.60172129       0.01121424      -0.00146646      -0.00146646      -0.00108849
Pu      11.58539862       9.26250557       2.31393835       0.00015941      -0.00000730      -0.00002968
Pu       9.26250557      11.58539862       2.31393835      -0.00000730       0.00015941      -0.00002968
Pu       9.26587666       9.26587666       4.63750628       0.00001851       0.00001851      -0.00013640
Pu      11.57535088      11.57535088       4.63374058       0.00006196       0.00006196      -0.00005276
Pu      11.57640206       9.27384291       6.96200100      -0.00007057      -0.00000125      -0.00014401
Pu       9.27384291      11.57640206       6.96200100      -0.00000125      -0.00007057      -0.00014401
Pu       9.27482848       9.27482848       9.27482848      -0.00025431      -0.00025431      -0.00025431
Pu      11.59049744      11.59049744       9.28116041      -0.00036094      -0.00036094      -0.00041874
Pu      11.59049744       9.28116041      11.59049744      -0.00036094      -0.00041874      -0.00036094
Pu       9.28116041      11.59049744      11.59049744      -0.00041874      -0.00036094      -0.00036094
Pu       1.58461896       1.58461896       1.58461896      -0.01737994      -0.01737994      -0.01737994
109
Lattice="13.89768440882287 1.7e-15 1.2e-15 1.7e-15 13.89768440882286 1.9e-15 1.2e-15 1.9e-15 13.897684408822562" Properties=species:S:1:pos:R:3:forces:R:3 energy=-1670.0937366437377 pbc="T T T"
Pu       0.04096894       0.04096894       0.04096894      -0.00778595      -0.00778595      -0.00778595
Pu       2.63045270       2.63045270      -0.52146151       0.01569565       0.01569565      -0.01517496
Pu       2.63045270      -0.52146151       2.63045270       0.01569565      -0.01517496       0.01569565
Pu      -0.52146151       2.63045270       2.63045270      -0.01517496       0.01569565       0.01569565
Pu      -0.02230012      -0.02230012       4.61585165       0.00062134       0.00062134      -0.00122383
Pu       2.30352199       2.30352199       4.56440658      -0.00020219      -0.00020219       0.00214359
Pu       2.31262804      -0.00642726       6.90974286      -0.00001412       0.00050951      -0.00016009
Pu      -0.00642726       2.31262804       6.90974286       0.00050951      -0.00001412      -0.00016009
Pu       0.00885021       0.00885021       9.26447732       0.00016834       0.00016834      -0.00009835
Pu       2.31601979       2.31601979       9.25862278      -0.00065606      -0.00065606       0.00135512
Pu       2.32410224      -0.01216589      11.60277093      -0.00117366      -0.00195107       0.00334191
Pu      -0.01216589       2.32410224      11.60277093      -0.00195107      -0.00117366       0.00334191
Pu      -0.02230012       4.61585165      -0.02230012       0.00062134      -0.00122383       0.00062134
Pu       2.31262804       6.90974286      -0.00642726      -0.00001412      -0.00016009       0.00050951
Pu       2.30352199       4.56440658       2.30352199      -0.00020219       0.00214359      -0.00020219
Pu      -0.00642726       6.90974286       2.31262804       0.00050951      -0.00016009      -0.00001412
Pu      -0.05454360       4.70934150       4.70934150       0.00553171       0.00282001       0.00282001
Pu       2.31312906       6.93972971       4.62892697       0.00124263       0.00177948       0.00044871
Pu       2.31312906       4.62892697       6.93972971       0.00124263       0.00044871       0.00177948
Pu      -0.01246781       6.96750490       6.96750490       0.00067799       0.00060024       0.00060024
Pu      -0.01155316       4.63573685       9.24569751      -0.00027906      -0.00043094       0.00026598
Pu       2.31387111       6.96320692       9.25118122      -0.00001964      -0.00000289       0.00080675
Pu       2.31526201       4.70638896      11.51394397      -0.00380676       0.00007077       0.00319255
Pu      -0.01194736       6.96091507      11.57331032      -0.00049128       0.00027328       0.00014423
Pu       0.00885021       9.26447732       0.00885021       0.00016834      -0.00009835       0.00016834
Pu       2.32410224      11.60277093      -0.01216589      -0.00117366       0.00334191      -0.00195107
Pu       2.31601979       9.25862278       2.31601979      -0.00065606       0.00135512      -0.00065606
Pu      -0.01216589      11.60277093       2.32410224      -0.00195107       0.00334191      -0.00117366
Pu      -0.01155316       9.24569751       4.63573685      -0.00027906       0.00026598      -0.00043094
Pu       2.31526201      11.51394397       4.70638896      -0.00380676       0.00319255       0.00007077
Pu       2.31387111       9.25118122       6.96320692      -0.00001964       0.00080675      -0.00000289
Pu      -0.01194736      11.57331032       6.96091507      -0.00049128       0.00014423       0.00027328
Pu      -0.00314010       9.27623389       9.27623389      -0.00013712      -0.00050416      -0.00050416
Pu       2.31416594      11.58571848       9.26246567       0.00003541       0.00010882      -0.00003751
Pu       2.31416594       9.26246567      11.58571848       0.00003541      -0.00003751       0.00010882
Pu       0.00833726      11.59707937      11.59707937      -0.00168305      -0.00258539      -0.00258539
Pu       4.61585165      -0.02230012      -0.02230012      -0.00122383       0.00062134       0.00062134
Pu       6.90974286       2.31262804      -0.00642726      -0.00016009      -0.00001412       0.00050951
Pu       6.90974286      -0.00642726       2.31262804      -0.00016009       0.00050951      -0.00001412
Pu       4.56440658       2.30352199       2.30352199       0.00214359      -0.00020219      -0.00020219
Pu       4.70934150      -0.05454360       4.70934150       0.00282001       0.00553171       0.00282001
Pu       6.93972971       2.31312906       4.62892697       0.00177948       0.00124263       0.00044871
Pu       6.96750490      -0.01246781       6.96750490       0.00060024       0.00067799       0.00060024
Pu       4.62892697       2.31312906       6.93972971       0.00044871       0.00124263       0.00177948
Pu       4.63573685      -0.01155316       9.24569751      -0.00043094      -0.00027906       0.00026598
Pu       6.96320692       2.31387111       9.25118122      -0.00000289      -0.00001964       0.00080675
Pu       6.96091507      -0.01194736      11.57331032       0.00027328      -0.00049128       0.00014423
Pu       4.70638896       2.31526201      11.51394397       0.00007077      -0.00380676       0.00319255
Pu       4.70934150       4.70934150      -0.05454360       0.00282001       0.00282001       0.00553171
Pu       6.96750490       6.96750490      -0.01246781       0.00060024       0.00060024       0.00067799
Pu       6.93972971       4.62892697       2.31312906       0.00177948       0.00044871       0.00124263
Pu       4.62892697       6.93972971       2.31312906       0.00044871       0.00177948       0.00124263
Pu       4.62155427       4.62155427       4.62155427       0.00029650       0.00029650       0.00029650
Pu       6.94474737       6.94474737       4.63345859       0.00026123       0.00026123      -0.00000293
Pu       6.94474737       4.63345859       6.94474737       0.00026123      -0.00000293       0.00026123
Pu       4.63345859       6.94474737       6.94474737      -0.00000293       0.00026123       0.00026123
Pu       4.64323208       4.64323208       9.24609169      -0.00123911      -0.00123911       0.00361569
Pu       6.95814281       6.95814281       9.25801520      -0.00070854      -0.00070854       0.00014731
Pu       6.97247891       4.65013626      11.55508297      -0.00122879      -0.00053554       0.00106866
Pu       4.65013626       6.97247891      11.55508297      -0.00053554      -0.00122879       0.00106866
Pu       4.63573685       9.24569751      -0.01155316      -0.00043094       0.00026598      -0.00027906
Pu       6.96091507      11.57331032      -0.01194736       0.00027328       0.00014423      -0.00049128
Pu       6.96320692       9.25118122       2.31387111      -0.00000289       0.00080675      -0.00001964
Pu       4.70638896      11.51394397       2.31526201       0.00007077       0.00319255      -0.00380676
Pu       4.64323208       9.24609169       4.64323208      -0.00123911       0.00361569      -0.00123911
Pu       6.97247891      11.55508297       4.65013626      -0.00122879       0.00106866      -0.00053554
Pu       6.95814281       9.25801520       6.95814281      -0.00070854       0.00014731      -0.00070854
Pu       4.65013626      11.55508297       6.97247891      -0.00053554       0.00106866      -0.00122879
Pu       4.63723344       9.26581366       9.26581366      -0.00028810      -0.00005295      -0.00005295
Pu       6.96133179      11.57610575       9.27305505      -0.00047506      -0.00018100      -0.00035924
Pu       6.96133179       9.27305505      11.57610575      -0.00047506      -0.00035924      -0.00018100
Pu       4.63408385      11.57543235      11.57543235       0.00006947       0.00005980       0.00005980
Pu       9.26447732       0.00885021       0.00885021      -0.00009835       0.00016834       0.00016834
Pu      11.60277093       2.32410224      -0.01216589       0.00334191      -0.00117366      -0.00195107
Pu      11.60277093      -0.01216589       2.32410224       0.00334191      -0.00195107      -0.00117366
Pu       9.25862278       2.31601979       2.31601979       0.00135512      -0.00065606      -0.00065606
Pu       9.24569751      -0.01155316       4.63573685       0.00026598      -0.00027906      -0.00043094
Pu      11.51394397       2.31526201       4.70638896       0.00319255      -0.00380676       0.00007077
Pu      11.57331032      -0.01194736       6.96091507       0.00014423      -0.00049128       0.00027328
Pu       9.25118122       2.31387111       6.96320692       0.00080675      -0.00001964      -0.00000289
Pu       9.27623389      -0.00314010       9.27623389      -0.00050416      -0.00013712      -0.00050416
Pu      11.58571848       2.31416594       9.26246567       0.00010882       0.00003541      -0.00003751
Pu      11.59707937       0.00833726      11.59707937      -0.00258539      -0.00168305      -0.00258539
Pu       9.26246567       2.31416594      11.58571848      -0.00003751       0.00003541       0.00010882
Pu       9.24569751       4.63573685      -0.01155316       0.00026598      -0.00043094      -0.00027906
Pu      11.57331032       6.96091507      -0.01194736       0.00014423       0.00027328      -0.00049128
Pu      11.51394397       4.70638896       2.31526201       0.00319255       0.00007077      -0.00380676
Pu       9.25118122       6.96320692       2.31387111       0.00080675      -0.00000289      -0.00001964
Pu       9.24609169       4.64323208       4.64323208       0.00361569      -0.00123911      -0.00123911
Pu      11.55508297       6.97247891       4.65013626       0.00106866      -0.00122879      -0.00053554
Pu      11.55508297       4.65013626       6.97247891       0.00106866      -0.00053554      -0.00122879
Pu       9.25801520       6.95814281       6.95814281       0.00014731      -0.00070854      -0.00070854
Pu       9.26581366       4.63723344       9.26581366      -0.00005295      -0.00028810      -0.00005295
Pu      11.57610575       6.96133179       9.27305505      -0.00018100      -0.00047506      -0.00035924
Pu      11.57543235       4.63408385      11.57543235       0.00005980       0.00006947       0.00005980
Pu       9.27305505       6.96133179      11.57610575      -0.00035924      -0.00047506      -0.00018100
Pu       9.27623389       9.27623389      -0.00314010      -0.00050416      -0.00050416      -0.00013712
Pu      11.59707937      11.59707937       0.00833726      -0.00258539      -0.00258539      -0.00168305
Pu      11.58571848       9.26246567       2.31416594       0.00010882      -0.00003751       0.00003541
Pu       9.26246567      11.58571848       2.31416594      -0.00003751       0.00010882       0.00003541
Pu       9.26581366       9.26581366       4.63723344      -0.00005295      -0.00005295      -0.00028810
Pu      11.57543235      11.57543235       4.63408385       0.00005980       0.00005980       0.00006947
Pu      11.57610575       9.27305505       6.96133179      -0.00018100      -0.00035924      -0.00047506
Pu       9.27305505      11.57610575       6.96133179      -0.00035924      -0.00018100      -0.00047506
Pu       9.27369684       9.27369684       9.27369684      -0.00064605      -0.00064605      -0.00064605
Pu      11.58919952      11.58919952       9.27977991      -0.00077317      -0.00077317      -0.00085909
Pu      11.58919952       9.27977991      11.58919952      -0.00077317      -0.00085909      -0.00077317
Pu       9.27977991      11.58919952      11.58919952      -0.00085909      -0.00077317      -0.00077317
Pu       1.55226678       1.55226678       1.55226678      -0.01723210      -0.01723210      -0.01723210
109
Lattice="13.89768440882287 1.7e-15 1.2e-15 1.7e-15 13.89768440882286 1.9e-15 1.2e-15 1.9e-15 13.897684408822562" Properties=species:S:1:pos:R:3:forces:R:3 energy=-1670.097081009525 pbc="T T T"
Pu       0.01780976       0.01780976       0.01780976       0.00134922       0.00134922       0.00134922
Pu       2.65297987       2.65297987      -0.52699181      -0.00018945      -0.00018945      -0.00030003
Pu       2.65297987      -0.52699181       2.65297987      -0.00018945      -0.00030003      -0.00018945
Pu      -0.52699181       2.65297987       2.65297987      -0.00030003      -0.00018945      -0.00018945
Pu      -0.02064877      -0.02064877       4.61300247       0.00001041       0.00001041       0.00002080
Pu       2.30473320       2.30473320       4.56928053       0.00012329       0.00012329      -0.00008723
Pu       2.31215034      -0.00427947       6.91063291       0.00004497      -0.00006328      -0.00002920
Pu      -0.00427947       2.31215034       6.91063291      -0.00006328       0.00004497      -0.00002920
Pu       0.00803191       0.00803191       9.26408488       0.00006784       0.00006784       0.00001632
Pu       2.31472269       2.31472269       9.26386756       0.00004887       0.00004887      -0.00014830
Pu       2.32045589      -0.01598572      11.60845808       0.00011898       0.00015725      -0.00005412
Pu      -0.01598572       2.32045589      11.60845808       0.00015725       0.00011898      -0.00005412
Pu      -0.02064877       4.61300247      -0.02064877       0.00001041       0.00002080       0.00001041
Pu       2.31215034       6.91063291      -0.00427947       0.00004497      -0.00002920      -0.00006328
Pu       2.30473320       4.56928053       2.30473320       0.00012329      -0.00008723       0.00012329
Pu      -0.00427947       6.91063291       2.31215034      -0.00006328      -0.00002920       0.00004497
Pu      -0.03986025       4.71137630       4.71137630      -0.00061059      -0.00019785      -0.00019785
Pu       2.31643820       6.94470246       4.63019284      -0.00017247      -0.00010305      -0.00003943
Pu       2.31643820       4.63019284       6.94470246      -0.00017247      -0.00003943      -0.00010305
Pu      -0.01013904       6.96716979       6.96716979      -0.00020105      -0.00007959      -0.00007959
Pu      -0.01211809       4.63389436       9.24673231      -0.00005445       0.00001976      -0.00007321
Pu       2.31356307       6.96239649       9.25311347      -0.00011161      -0.00000794      -0.00015160
Pu       2.30849967       4.70415497      11.51946480       0.00027262      -0.00004129      -0.00031276
Pu      -0.01305798       6.96055509      11.57342909      -0.00004086      -0.00000621      -0.00001663
Pu       0.00803191       9.26408488       0.00803191       0.00006784       0.00001632       0.00006784
Pu       2.32045589      11.60845808      -0.01598572       0.00011898      -0.00005412       0.00015725
Pu       2.31472269       9.26386756       2.31472269       0.00004887      -0.00014830       0.00004887
Pu      -0.01598572      11.60845808       2.32045589       0.00015725      -0.00005412       0.00011898
Pu      -0.01211809       9.24673231       4.63389436      -0.00005445      -0.00007321       0.00001976
Pu       2.30849967      11.51946480       4.70415497       0.00027262      -0.00031276      -0.00004129
Pu       2.31356307       9.25311347       6.96239649      -0.00011161      -0.00015160      -0.00000794
Pu      -0.01305798      11.57342909       6.96055509      -0.00004086      -0.00001663      -0.00000621
Pu      -0.00435905       9.27285510       9.27285510      -0.00000003       0.00008021       0.00008021
Pu       2.31376203      11.58541386       9.26182101      -0.00005010      -0.00005634       0.00001233
Pu       2.31376203       9.26182101      11.58541386      -0.00005010       0.00001233      -0.00005634
Pu       0.00161371      11.58699682      11.58699682       0.00020915       0.00032858       0.00032858
Pu       4.61300247      -0.02064877      -0.02064877       0.00002080       0.00001041       0.00001041
Pu       6.91063291       2.31215034      -0.00427947      -0.00002920       0.00004497      -0.00006328
Pu       6.91063291      -0.00427947       2.31215034      -0.00002920      -0.00006328       0.00004497
Pu       4.56928053       2.30473320       2.30473320      -0.00008723       0.00012329       0.00012329
Pu       4.71137630      -0.03986025       4.71137630      -0.00019785      -0.00061059      -0.00019785
Pu       6.94470246       2.31643820       4.63019284      -0.00010305      -0.00017247      -0.00003943
Pu       6.96716979      -0.01013904       6.96716979      -0.00007959      -0.00020105      -0.00007959
Pu       4.63019284       2.31643820       6.94470246      -0.00003943      -0.00017247      -0.00010305
Pu       4.63389436      -0.01211809       9.24673231       0.00001976      -0.00005445      -0.00007321
Pu       6.96239649       2.31356307       9.25311347      -0.00000794      -0.00011161      -0.00015160
Pu       6.96055509      -0.01305798      11.57342909      -0.00000621      -0.00004086      -0.00001663
Pu       4.70415497       2.30849967      11.51946480      -0.00004129       0.00027262      -0.00031276
Pu       4.71137630       4.71137630      -0.03986025      -0.00019785      -0.00019785      -0.00061059
Pu       6.96716979       6.96716979      -0.01013904      -0.00007959      -0.00007959      -0.00020105
Pu       6.94470246       4.63019284       2.31643820      -0.00010305      -0.00003943      -0.00017247
Pu       4.63019284       6.94470246       2.31643820      -0.00003943      -0.00010305      -0.00017247
Pu       4.62291752       4.62291752       4.62291752      -0.00000809      -0.00000809      -0.00000809
Pu       6.94589040       6.94589040       4.63378497      -0.00005941      -0.00005941      -0.00000476
Pu       6.94589040       4.63378497       6.94589040      -0.00005941      -0.00000476      -0.00005941
Pu       4.63378497       6.94589040       6.94589040      -0.00000476      -0.00005941      -0.00005941
Pu       4.64352695       4.64352695       9.24731392      -0.00029614      -0.00029614       0.00041088
Pu       6.95586571       6.95586571       9.25844095       0.00006037       0.00006037      -0.00007334
Pu       6.96724919       4.64726010      11.55880837       0.00003871       0.00001064      -0.00022965
Pu       4.64726010       6.96724919      11.55880837       0.00001064       0.00003871      -0.00022965
Pu       4.63389436       9.24673231      -0.01211809       0.00001976      -0.00007321      -0.00005445
Pu       6.96055509      11.57342909      -0.01305798      -0.00000621      -0.00001663      -0.00004086
Pu       6.96239649       9.25311347       2.31356307      -0.00000794      -0.00015160      -0.00011161
Pu       4.70415497      11.51946480       2.30849967      -0.00004129      -0.00031276       0.00027262
Pu       4.64352695       9.24731392       4.64352695      -0.00029614       0.00041088      -0.00029614
Pu       6.96724919      11.55880837       4.64726010       0.00003871      -0.00022965       0.00001064
Pu       6.95586571       9.25844095       6.95586571       0.00006037      -0.00007334       0.00006037
Pu       4.64726010      11.55880837       6.96724919       0.00001064      -0.00022965       0.00003871
Pu       4.63559392       9.26549259       9.26549259      -0.00008488      -0.00005333      -0.00005333
Pu       6.95806578      11.57511505       9.27022495       0.00005112      -0.00000979       0.00010363
Pu       6.95806578       9.27022495      11.57511505       0.00005112       0.00010363      -0.00000979
Pu       4.63338075      11.57573072      11.57573072       0.00000560      -0.00003699      -0.00003699
Pu       9.26408488       0.00803191       0.00803191       0.00001632       0.00006784       0.00006784
Pu      11.60845808       2.32045589      -0.01598572      -0.00005412       0.00011898       0.00015725
Pu      11.60845808      -0.01598572       2.32045589      -0.00005412       0.00015725       0.00011898
Pu       9.26386756       2.31472269       2.31472269      -0.00014830       0.00004887       0.00004887
Pu       9.24673231      -0.01211809       4.63389436      -0.00007321      -0.00005445       0.00001976
Pu      11.51946480       2.30849967       4.70415497      -0.00031276       0.00027262      -0.00004129
Pu      11.57342909      -0.01305798       6.96055509      -0.00001663      -0.00004086      -0.00000621
Pu       9.25311347       2.31356307       6.96239649      -0.00015160      -0.00011161      -0.00000794
Pu       9.27285510      -0.00435905       9.27285510       0.00008021      -0.00000003       0.00008021
Pu      11.58541386       2.31376203       9.26182101      -0.00005634      -0.00005010       0.00001233
Pu      11.58699682       0.00161371      11.58699682       0.00032858       0.00020915       0.00032858
Pu       9.26182101       2.31376203      11.58541386       0.00001233      -0.00005010      -0.00005634
Pu       9.24673231       4.63389436      -0.01211809      -0.00007321       0.00001976      -0.00005445
Pu      11.57342909       6.96055509      -0.01305798      -0.00001663      -0.00000621      -0.00004086
Pu      11.51946480       4.70415497       2.30849967      -0.00031276      -0.00004129       0.00027262
Pu       9.25311347       6.96239649       2.31356307      -0.00015160      -0.00000794      -0.00011161
Pu       9.24731392       4.64352695       4.64352695       0.00041088      -0.00029614      -0.00029614
Pu      11.55880837       6.96724919       4.64726010      -0.00022965       0.00003871       0.00001064
Pu      11.55880837       4.64726010       6.96724919      -0.00022965       0.00001064       0.00003871
Pu       9.25844095       6.95586571       6.95586571      -0.00007334       0.00006037       0.00006037
Pu       9.26549259       4.63559392       9.26549259      -0.00005333      -0.00008488      -0.00005333
Pu      11.57511505       6.95806578       9.27022495      -0.00000979       0.00005112       0.00010363
Pu      11.57573072       4.63338075      11.57573072      -0.00003699       0.00000560      -0.00003699
Pu       9.27022495       6.95806578      11.57511505       0.00010363       0.00005112      -0.00000979
Pu       9.27285510       9.27285510      -0.00435905       0.00008021       0.00008021      -0.00000003
Pu      11.58699682      11.58699682       0.00161371       0.00032858       0.00032858       0.00020915
Pu      11.58541386       9.26182101       2.31376203      -0.00005634       0.00001233      -0.00005010
Pu       9.26182101      11.58541386       2.31376203       0.00001233      -0.00005634      -0.00005010
Pu       9.26549259       9.26549259       4.63559392      -0.00005333      -0.00005333      -0.00008488
Pu      11.57573072      11.57573072       4.63338075      -0.00003699      -0.00003699       0.00000560
Pu      11.57511505       9.27022495       6.95806578      -0.00000979       0.00010363       0.00005112
Pu       9.27022495      11.57511505       6.95806578       0.00010363      -0.00000979       0.00005112
Pu       9.26994806       9.26994806       9.26994806       0.00012513       0.00012513       0.00012513
Pu      11.58463145      11.58463145       9.27448600       0.00019743       0.00019743       0.00019815
Pu      11.58463145       9.27448600      11.58463145       0.00019743       0.00019815       0.00019743
Pu       9.27448600      11.58463145      11.58463145       0.00019815       0.00019743       0.00019743
Pu       1.52343499       1.52343499       1.52343499       0.00076255       0.00076255       0.00076255
109
Lattice="13.89768440882287 1.7e-15 1.2e-15 1.7e-15 13.89768440882286 1.9e-15 1.2e-15 1.9e-15 13.897684408822562" Properties=species:S:1:pos:R:3:forces:R:3 energy=-1670.0941541542722 pbc="T T T"
Pu      -0.01696173      -0.01696173      -0.01696173       0.02101416       0.02101416       0.02101416
Pu       2.65942450       2.65942450      -0.52358455      -0.00421412      -0.00421412      -0.00821797
Pu       2.65942450      -0.52358455       2.65942450      -0.00421412      -0.00821797      -0.00421412
Pu      -0.52358455       2.65942450       2.65942450      -0.00821797      -0.00421412      -0.00421412
Pu      -0.02406586      -0.02406586       4.60747768      -0.00117545      -0.00117545      -0.00026317
Pu       2.29844320       2.29844320       4.56331404       0.00013968       0.00013968      -0.00006497
Pu       2.30856655      -0.00643584       6.90797496      -0.00089331      -0.00104971      -0.00160933
Pu      -0.00643584       2.30856655       6.90797496      -0.00104971      -0.00089331      -0.00160933
Pu       0.00279225       0.00279225       9.25973115       0.00013557       0.00013557      -0.00126946
Pu       2.31065410       2.31065410       9.26357913      -0.00052521      -0.00052521      -0.00235683
Pu       2.31341477      -0.02250389      11.60555761       0.00054773       0.00002053      -0.00064096
Pu      -0.02250389       2.31341477      11.60555761       0.00002053       0.00054773      -0.00064096
Pu      -0.02406586       4.60747768      -0.02406586      -0.00117545      -0.00026317      -0.00117545
Pu       2.30856655       6.90797496      -0.00643584      -0.00089331      -0.00160933      -0.00104971
Pu       2.29844320       4.56331404       2.29844320       0.00013968      -0.00006497       0.00013968
Pu      -0.00643584       6.90797496       2.30856655      -0.00104971      -0.00160933      -0.00089331
Pu      -0.03432494       4.70610692       4.70610692      -0.00438359       0.00090416       0.00090416
Pu       2.31476941       6.94233677       4.62576649      -0.00121665      -0.00121756      -0.00036293
Pu       2.31476941       4.62576649       6.94233677      -0.00121665      -0.00036293      -0.00121756
Pu      -0.01126666       6.96134464       6.96134464      -0.00129985       0.00036492       0.00036492
Pu      -0.01497754       4.62936858       9.24413865      -0.00096512      -0.00049456      -0.00132939
Pu       2.31129621       6.95774327       9.24919188      -0.00121977      -0.00031796      -0.00028380
Pu       2.30460251       4.69909569      11.51605916      -0.00191966      -0.00046635       0.00027594
Pu      -0.01599797       6.95597711      11.56965895      -0.00119187      -0.00023847      -0.00075321
Pu       0.00279225       9.25973115       0.00279225       0.00013557      -0.00126946       0.00013557
Pu       2.31341477      11.60555761      -0.02250389       0.00054773      -0.00064096       0.00002053
Pu       2.31065410       9.26357913       2.31065410      -0.00052521      -0.00235683      -0.00052521
Pu      -0.02250389      11.60555761       2.31341477       0.00002053      -0.00064096       0.00054773
Pu      -0.01497754       9.24413865       4.62936858      -0.00096512      -0.00132939      -0.00049456
Pu       2.30460251      11.51605916       4.69909569      -0.00191966       0.00027594      -0.00046635
Pu       2.31129621       9.24919188       6.95774327      -0.00121977      -0.00028380      -0.00031796
Pu      -0.01599797      11.56965895       6.95597711      -0.00119187      -0.00075321      -0.00023847
Pu      -0.00858016       9.26388583       9.26388583      -0.00028640       0.00186129       0.00186129
Pu       2.31058307      11.58032640       9.25688627      -0.00098147       0.00017406      -0.00004887
Pu       2.31058307       9.25688627      11.58032640      -0.00098147      -0.00004887       0.00017406
Pu      -0.01009697      11.56950273      11.56950273       0.00324986       0.00694588       0.00694588
Pu       4.60747768      -0.02406586      -0.02406586      -0.00026317      -0.00117545      -0.00117545
Pu       6.90797496       2.30856655      -0.00643584      -0.00160933      -0.00089331      -0.00104971
Pu       6.90797496      -0.00643584       2.30856655      -0.00160933      -0.00104971      -0.00089331
Pu       4.56331404       2.29844320       2.29844320      -0.00006497       0.00013968       0.00013968
Pu       4.70610692      -0.03432494       4.70610692       0.00090416      -0.00438359       0.00090416
Pu       6.94233677       2.31476941       4.62576649      -0.00121756      -0.00121665      -0.00036293
Pu       6.96134464      -0.01126666       6.96134464       0.00036492      -0.00129985       0.00036492
Pu       4.62576649       2.31476941       6.94233677      -0.00036293      -0.00121665      -0.00121756
Pu       4.62936858      -0.01497754       9.24413865      -0.00049456      -0.00096512      -0.00132939
Pu       6.95774327       2.31129621       9.24919188      -0.00031796      -0.00121977      -0.00028380
Pu       6.95597711      -0.01599797      11.56965895      -0.00023847      -0.00119187      -0.00075321
Pu       4.69909569       2.30460251      11.51605916      -0.00046635      -0.00191966       0.00027594
Pu       4.70610692       4.70610692      -0.03432494       0.00090416       0.00090416      -0.00438359
Pu       6.96134464       6.96134464      -0.01126666       0.00036492       0.00036492      -0.00129985
Pu       6.94233677       4.62576649       2.31476941      -0.00121756      -0.00036293      -0.00121665
Pu       4.62576649       6.94233677       2.31476941      -0.00036293      -0.00121756      -0.00121665
Pu       4.61720362       4.61720362       4.61720362       0.00020142       0.00020142       0.00020142
Pu       6.94179654       6.94179654       4.63057357      -0.00041898      -0.00041898      -0.00073432
Pu       6.94179654       4.63057357       6.94179654      -0.00041898      -0.00073432      -0.00041898
Pu       4.63057357       6.94179654       6.94179654      -0.00073432      -0.00041898      -0.00041898
Pu       4.64048714       4.64048714       9.24394261      -0.00056329      -0.00056329      -0.00144162
Pu       6.95069294       6.95069294       9.25475074      -0.00008853      -0.00008853      -0.00048750
Pu       6.96110421       4.64245876      11.55763307      -0.00028605      -0.00053961      -0.00125515
Pu       4.64245876       6.96110421      11.55763307      -0.00053961      -0.00028605      -0.00125515
Pu       4.62936858       9.24413865      -0.01497754      -0.00049456      -0.00132939      -0.00096512
Pu       6.95597711      11.56965895      -0.01599797      -0.00023847      -0.00075321      -0.00119187
Pu       6.95774327       9.24919188       2.31129621      -0.00031796      -0.00028380      -0.00121977
Pu       4.69909569      11.51605916       2.30460251      -0.00046635       0.00027594      -0.00191966
Pu       4.64048714       9.24394261       4.64048714      -0.00056329      -0.00144162      -0.00056329
Pu       6.96110421      11.55763307       4.64245876      -0.00028605      -0.00125515      -0.00053961
Pu       6.95069294       9.25475074       6.95069294      -0.00008853      -0.00048750      -0.00008853
Pu       4.64245876      11.55763307       6.96110421      -0.00053961      -0.00125515      -0.00028605
Pu       4.63167611       9.26140017       9.26140017      -0.00067178      -0.00044698      -0.00044698
Pu       6.95095449      11.57118186       9.26395085       0.00076452      -0.00048775       0.00028733
Pu       6.95095449       9.26395085      11.57118186       0.00076452       0.00028733      -0.00048775
Pu       4.62897900      11.57286766      11.57286766      -0.00013088      -0.00123877      -0.00123877
Pu       9.25973115       0.00279225       0.00279225      -0.00126946       0.00013557       0.00013557
Pu      11.60555761       2.31341477      -0.02250389      -0.00064096       0.00054773       0.00002053
Pu      11.60555761      -0.02250389       2.31341477      -0.00064096       0.00002053       0.00054773
Pu       9.26357913       2.31065410       2.31065410      -0.00235683      -0.00052521      -0.00052521
Pu       9.24413865      -0.01497754       4.62936858      -0.00132939      -0.00096512      -0.00049456
Pu      11.51605916       2.30460251       4.69909569       0.00027594      -0.00191966      -0.00046635
Pu      11.56965895      -0.01599797       6.95597711      -0.00075321      -0.00119187      -0.00023847
Pu       9.24919188       2.31129621       6.95774327      -0.00028380      -0.00121977      -0.00031796
Pu       9.26388583      -0.00858016       9.26388583       0.00186129      -0.00028640       0.00186129
Pu      11.58032640       2.31058307       9.25688627       0.00017406      -0.00098147      -0.00004887
Pu      11.56950273      -0.01009697      11.56950273       0.00694588       0.00324986       0.00694588
Pu       9.25688627       2.31058307      11.58032640      -0.00004887      -0.00098147       0.00017406
Pu       9.24413865       4.62936858      -0.01497754      -0.00132939      -0.00049456      -0.00096512
Pu      11.56965895       6.95597711      -0.01599797      -0.00075321      -0.00023847      -0.00119187
Pu      11.51605916       4.69909569       2.30460251       0.00027594      -0.00046635      -0.00191966
Pu       9.24919188       6.95774327       2.31129621      -0.00028380      -0.00031796      -0.00121977
Pu       9.24394261       4.64048714       4.64048714      -0.00144162      -0.00056329      -0.00056329
Pu      11.55763307       6.96110421       4.64245876      -0.00125515      -0.00028605      -0.00053961
Pu      11.55763307       4.64245876       6.96110421      -0.00125515      -0.00053961      -0.00028605
Pu       9.25475074       6.95069294       6.95069294      -0.00048750      -0.00008853      -0.00008853
Pu       9.26140017       4.63167611       9.26140017      -0.00044698      -0.00067178      -0.00044698
Pu      11.57118186       6.95095449       9.26395085      -0.00048775       0.00076452       0.00028733
Pu      11.57286766       4.62897900      11.57286766      -0.00123877      -0.00013088      -0.00123877
Pu       9.26395085       6.95095449      11.57118186       0.00028733       0.00076452      -0.00048775
Pu       9.26388583       9.26388583      -0.00858016       0.00186129       0.00186129      -0.00028640
Pu      11.56950273      11.56950273      -0.01009697       0.00694588       0.00694588       0.00324986
Pu      11.58032640       9.25688627       2.31058307       0.00017406      -0.00004887      -0.00098147
Pu       9.25688627      11.58032640       2.31058307      -0.00004887       0.00017406      -0.00098147
Pu       9.26140017       9.26140017       4.63167611      -0.00044698      -0.00044698      -0.00067178
Pu      11.57286766      11.57286766       4.62897900      -0.00123877      -0.00123877      -0.00013088
Pu      11.57118186       9.26395085       6.95095449      -0.00048775       0.00028733       0.00076452
Pu       9.26395085      11.57118186       6.95095449       0.00028733      -0.00048775       0.00076452
Pu       9.26229525       9.26229525       9.26229525       0.00101987       0.00101987       0.00101987
Pu      11.57518317      11.57518317       9.26306630       0.00212156       0.00212156       0.00320686
Pu      11.57518317       9.26306630      11.57518317       0.00212156       0.00320686       0.00212156
Pu       9.26306630      11.57518317      11.57518317       0.00320686       0.00212156       0.00212156
Pu       1.48892872       1.48892872       1.48892872       0.02071147       0.02071147       0.02071147
109
Lattice="13.89768440882287 1.7e-15 1.2e-15 1.7e-15 13.89768440882286 1.9e-15 1.2e-15 1.9e-15 13.897684408822562" Properties=species:S:1:pos:R:3:forces:R:3 energy=-1670.0777386024556 pbc="T T T"
Pu      -0.07021789      -0.07021789      -0.07021789       0.05174611       0.05174611       0.05174611
Pu       2.67165378       2.67165378      -0.50265687       0.00154383       0.00154383      -0.03934860
Pu       2.67165378      -0.50265687       2.67165378       0.00154383      -0.03934860       0.00154383
Pu      -0.50265687       2.67165378       2.67165378      -0.03934860       0.00154383       0.00154383
Pu      -0.02067235      -0.02067235       4.60836070      -0.00377374      -0.00377374      -0.00154790
Pu       2.29846870       2.29846870       4.56389422      -0.00179897      -0.00179897      -0.00292119
Pu       2.31101085      -0.00368447       6.91227183      -0.00191473      -0.00110068      -0.00436054
Pu      -0.00368447       2.31101085       6.91227183      -0.00110068      -0.00191473      -0.00436054
Pu       0.00258463       0.00258463       9.26309741       0.00044935       0.00044935      -0.00442315
Pu       2.31205698       2.31205698       9.26981051      -0.00156613      -0.00156613      -0.00454631
Pu       2.31211793      -0.02216645      11.60758673      -0.00061746      -0.00281964       0.00028564
Pu      -0.02216645       2.31211793      11.60758673      -0.00281964      -0.00061746       0.00028564
Pu      -0.02067235       4.60836070      -0.02067235      -0.00377374      -0.00154790      -0.00377374
Pu       2.31101085       6.91227183      -0.00368447      -0.00191473      -0.00436054      -0.00110068
Pu       2.29846870       4.56389422       2.29846870      -0.00179897      -0.00292119      -0.00179897
Pu      -0.00368447       6.91227183       2.31101085      -0.00110068      -0.00436054      -0.00191473
Pu      -0.02300029       4.70351051       4.70351051      -0.00332290       0.00234930       0.00234930
Pu       2.31783369       6.94561124       4.62664775      -0.00101188      -0.00205987      -0.00114930
Pu       2.31783369       4.62664775       6.94561124      -0.00101188      -0.00114930      -0.00205987
Pu      -0.00779574       6.96022618       6.96022618      -0.00123997       0.00035481       0.00035481
Pu      -0.01242151       4.63051557       9.24760747      -0.00189696      -0.00101069      -0.00270370
Pu       2.31446940       6.95864894       9.24984492      -0.00186163      -0.00076250      -0.00002991
Pu       2.30968450       4.70032126      11.51499581      -0.00904698      -0.00141444       0.00319230
Pu      -0.01299356       6.95649523      11.57155202      -0.00236208       0.00014067      -0.00154750
Pu       0.00258463       9.26309741       0.00258463       0.00044935      -0.00442315       0.00044935
Pu       2.31211793      11.60758673      -0.02216645      -0.00061746       0.00028564      -0.00281964
Pu       2.31205698       9.26981051       2.31205698      -0.00156613      -0.00454631      -0.00156613
Pu      -0.02216645      11.60758673       2.31211793      -0.00281964       0.00028564      -0.00061746
Pu      -0.01242151       9.24760747       4.63051557      -0.00189696      -0.00270370      -0.00101069
Pu       2.30968450      11.51499581       4.70032126      -0.00904698       0.00319230      -0.00141444
Pu       2.31446940       9.24984492       6.95864894      -0.00186163      -0.00002991      -0.00076250
Pu      -0.01299356      11.57155202       6.95649523      -0.00236208      -0.00154750       0.00014067
Pu      -0.00782619       9.25907721       9.25907721      -0.00040860       0.00289521       0.00289521
Pu       2.31303582      11.57996131       9.25716121      -0.00173924       0.00044538      -0.00018586
Pu       2.31303582       9.25716121      11.57996131      -0.00173924      -0.00018586       0.00044538
Pu      -0.01846650      11.55177438      11.55177438       0.00545242       0.01349179       0.01349179
Pu       4.60836070      -0.02067235      -0.02067235      -0.00154790      -0.00377374      -0.00377374
Pu       6.91227183       2.31101085      -0.00368447      -0.00436054      -0.00191473      -0.00110068
Pu       6.91227183      -0.00368447       2.31101085      -0.00436054      -0.00110068      -0.00191473
Pu       4.56389422       2.29846870       2.29846870      -0.00292119      -0.00179897      -0.00179897
Pu       4.70351051      -0.02300029       4.70351051       0.00234930      -0.00332290       0.00234930
Pu       6.94561124       2.31783369       4.62664775      -0.00205987      -0.00101188      -0.00114930
Pu       6.96022618      -0.00779574       6.96022618       0.00035481      -0.00123997       0.00035481
Pu       4.62664775       2.31783369       6.94561124      -0.00114930      -0.00101188      -0.00205987
Pu       4.63051557      -0.01242151       9.24760747      -0.00101069      -0.00189696      -0.00270370
Pu       6.95864894       2.31446940       9.24984492      -0.00076250      -0.00186163      -0.00002991
Pu       6.95649523      -0.01299356      11.57155202       0.00014067      -0.00236208      -0.00154750
Pu       4.70032126       2.30968450      11.51499581      -0.00141444      -0.00904698       0.00319230
Pu       4.70351051       4.70351051      -0.02300029       0.00234930       0.00234930      -0.00332290
Pu       6.96022618       6.96022618      -0.00779574       0.00035481       0.00035481      -0.00123997
Pu       6.94561124       4.62664775       2.31783369      -0.00205987      -0.00114930      -0.00101188
Pu       4.62664775       6.94561124       2.31783369      -0.00114930      -0.00205987      -0.00101188
Pu       4.61658108       4.61658108       4.61658108      -0.00040403      -0.00040403      -0.00040403
Pu       6.94261193       6.94261193       4.63245236      -0.00070866      -0.00070866      -0.00125717
Pu       6.94261193       4.63245236       6.94261193      -0.00070866      -0.00125717      -0.00070866
Pu       4.63245236       6.94261193       6.94261193      -0.00125717      -0.00070866      -0.00070866
Pu       4.64181968       4.64181968       9.24803615      -0.00274674      -0.00274674       0.00173427
Pu       6.95090919       6.95090919       9.25585511      -0.00100796      -0.00100796      -0.00037191
Pu       6.96174301       4.64376874      11.56097764      -0.00251549      -0.00203411      -0.00053306
Pu       4.64376874       6.96174301      11.56097764      -0.00203411      -0.00251549      -0.00053306
Pu       4.63051557       9.24760747      -0.01242151      -0.00101069      -0.00270370      -0.00189696
Pu       6.95649523      11.57155202      -0.01299356       0.00014067      -0.00154750      -0.00236208
Pu       6.95864894       9.24984492       2.31446940      -0.00076250      -0.00002991      -0.00186163
Pu       4.70032126      11.51499581       2.30968450      -0.00141444       0.00319230      -0.00904698
Pu       4.64181968       9.24803615       4.64181968      -0.00274674       0.00173427      -0.00274674
Pu       6.96174301      11.56097764       4.64376874      -0.00251549      -0.00053306      -0.00203411
Pu       6.95090919       9.25585511       6.95090919      -0.00100796      -0.00037191      -0.00100796
Pu       4.64376874      11.56097764       6.96174301      -0.00203411      -0.00053306      -0.00251549
Pu       4.63325354       9.26255634       9.26255634      -0.00107854      -0.00088672      -0.00088672
Pu       6.94877146      11.57241520       9.26322716       0.00098181      -0.00081578      -0.00025616
Pu       6.94877146       9.26322716      11.57241520       0.00098181      -0.00025616      -0.00081578
Pu       4.62916539      11.57626877      11.57626877       0.00040888      -0.00263498      -0.00263498
Pu       9.26309741       0.00258463       0.00258463      -0.00442315       0.00044935       0.00044935
Pu      11.60758673       2.31211793      -0.02216645       0.00028564      -0.00061746      -0.00281964
Pu      11.60758673      -0.02216645       2.31211793       0.00028564      -0.00281964      -0.00061746
Pu       9.26981051       2.31205698       2.31205698      -0.00454631      -0.00156613      -0.00156613
Pu       9.24760747      -0.01242151       4.63051557      -0.00270370      -0.00189696      -0.00101069
Pu      11.51499581       2.30968450       4.70032126       0.00319230      -0.00904698      -0.00141444
Pu      11.57155202      -0.01299356       6.95649523      -0.00154750      -0.00236208       0.00014067
Pu       9.24984492       2.31446940       6.95864894      -0.00002991      -0.00186163      -0.00076250
Pu       9.25907721      -0.00782619       9.25907721       0.00289521      -0.00040860       0.00289521
Pu      11.57996131       2.31303582       9.25716121       0.00044538      -0.00173924      -0.00018586
Pu      11.55177438      -0.01846650      11.55177438       0.01349179       0.00545242       0.01349179
Pu       9.25716121       2.31303582      11.57996131      -0.00018586      -0.00173924       0.00044538
Pu       9.24760747       4.63051557      -0.01242151      -0.00270370      -0.00101069      -0.00189696
Pu      11.57155202       6.95649523      -0.01299356      -0.00154750       0.00014067      -0.00236208
Pu      11.51499581       4.70032126       2.30968450       0.00319230      -0.00141444      -0.00904698
Pu       9.24984492       6.95864894       2.31446940      -0.00002991      -0.00076250      -0.00186163
Pu       9.24803615       4.64181968       4.64181968       0.00173427      -0.00274674      -0.00274674
Pu      11.56097764       6.96174301       4.64376874      -0.00053306      -0.00251549      -0.00203411
Pu      11.56097764       4.64376874       6.96174301      -0.00053306      -0.00203411      -0.00251549
Pu       9.25585511       6.95090919       6.95090919      -0.00037191      -0.00100796      -0.00100796
Pu       9.26255634       4.63325354       9.26255634      -0.00088672      -0.00107854      -0.00088672
Pu      11.57241520       6.94877146       9.26322716      -0.00081578       0.00098181      -0.00025616
Pu      11.57626877       4.62916539      11.57626877      -0.00263498       0.00040888      -0.00263498
Pu       9.26322716       6.94877146      11.57241520      -0.00025616       0.00098181      -0.00081578
Pu       9.25907721       9.25907721      -0.00782619       0.00289521       0.00289521      -0.00040860
Pu      11.55177438      11.55177438      -0.01846650       0.01349179       0.01349179       0.00545242
Pu      11.57996131       9.25716121       2.31303582       0.00044538      -0.00018586      -0.00173924
Pu       9.25716121      11.57996131       2.31303582      -0.00018586       0.00044538      -0.00173924
Pu       9.26255634       9.26255634       4.63325354      -0.00088672      -0.00088672      -0.00107854
Pu      11.57626877      11.57626877       4.62916539      -0.00263498      -0.00263498       0.00040888
Pu      11.57241520       9.26322716       6.94877146      -0.00081578      -0.00025616       0.00098181
Pu       9.26322716      11.57241520       6.94877146      -0.00025616      -0.00081578       0.00098181
Pu       9.25952465       9.25952465       9.25952465       0.00121032       0.00121032       0.00121032
Pu      11.56976321      11.56976321       9.25470588       0.00347314       0.00347314       0.00574328
Pu      11.56976321       9.25470588      11.56976321       0.00347314       0.00574328       0.00347314
Pu       9.25470588      11.56976321      11.56976321       0.00574328       0.00347314       0.00347314
Pu       1.43600862       1.43600862       1.43600862       0.05711677       0.05711677       0.05711677
109
Lattice="13.89768440882287 1.7e-15 1.2e-15 1.7e-15 13.89768440882286 1.9e-15 1.2e-15 1.9e-15 13.897684408822562" Properties=species:S:1:pos:R:3:forces:R:3 energy=-1670.0377968877772 pbc="T T T"
Pu      -0.13347447      -0.13347447      -0.13347447       0.06751096       0.06751096       0.06751096
Pu       2.66981480       2.66981480      -0.45499485       0.01497625       0.01497625      -0.06442679
Pu       2.66981480      -0.45499485       2.66981480       0.01497625      -0.06442679       0.01497625
Pu      -0.45499485       2.66981480       2.66981480      -0.06442679       0.01497625       0.01497625
Pu      -0.01603241      -0.01603241       4.61041269      -0.00524366      -0.00524366      -0.00138349
Pu       2.30072309       2.30072309       4.56751184      -0.00513583      -0.00513583      -0.01310349
Pu       2.31362094      -0.00214685       6.91778284      -0.00166714      -0.00031526      -0.00565138
Pu      -0.00214685       2.31362094       6.91778284      -0.00031526      -0.00166714      -0.00565138
Pu       0.00217448       0.00217448       9.26868986       0.00115409       0.00115409      -0.00572971
Pu       2.31431509       2.31431509       9.27553210      -0.00142247      -0.00142247      -0.00399775
Pu       2.31316650      -0.01862088      11.60771110      -0.00182158      -0.00565320       0.00068416
Pu      -0.01862088       2.31316650      11.60771110      -0.00565320      -0.00182158       0.00068416
Pu      -0.01603241       4.61041269      -0.01603241      -0.00524366      -0.00138349      -0.00524366
Pu       2.31362094       6.91778284      -0.00214685      -0.00166714      -0.00565138      -0.00031526
Pu       2.30072309       4.56751184       2.30072309      -0.00513583      -0.01310349      -0.00513583
Pu      -0.00214685       6.91778284       2.31362094      -0.00031526      -0.00565138      -0.00166714
Pu      -0.01860858       4.70115353       4.70115353       0.00306965      -0.00104250      -0.00104250
Pu       2.31917546       6.94822898       4.62814609      -0.00040618      -0.00250591      -0.00213786
Pu       2.31917546       4.62814609       6.94822898      -0.00040618      -0.00213786      -0.00250591
Pu      -0.00600100       6.96008263       6.96008263      -0.00043524      -0.00042208      -0.00042208
Pu      -0.00977611       4.63206726       9.25117000      -0.00203536      -0.00100043      -0.00279686
Pu       2.31715002       6.95979301       9.25017489      -0.00154041      -0.00080294      -0.00018734
Pu       2.32086288       4.70252420      11.51118728      -0.01098430      -0.00130811       0.00297109
Pu      -0.00983669       6.95658457      11.57363716      -0.00222705       0.00052063      -0.00171788
Pu       0.00217448       9.26868986       0.00217448       0.00115409      -0.00572971       0.00115409
Pu       2.31316650      11.60771110      -0.01862088      -0.00182158       0.00068416      -0.00565320
Pu       2.31431509       9.27553210       2.31431509      -0.00142247      -0.00399775      -0.00142247
Pu      -0.01862088      11.60771110       2.31316650      -0.00565320       0.00068416      -0.00182158
Pu      -0.00977611       9.25117000       4.63206726      -0.00203536      -0.00279686      -0.00100043
Pu       2.32086288      11.51118728       4.70252420      -0.01098430       0.00297109      -0.00130811
Pu       2.31715002       9.25017489       6.95979301      -0.00154041      -0.00018734      -0.00080294
Pu      -0.00983669      11.57363716       6.95658457      -0.00222705      -0.00171788       0.00052063
Pu      -0.00693993       9.25576678       9.25576678      -0.00046765       0.00220723       0.00220723
Pu       2.31544436      11.57951571       9.25756466      -0.00179341       0.00051909      -0.00018955
Pu       2.31544436       9.25756466      11.57951571      -0.00179341      -0.00018955       0.00051909
Pu      -0.02502617      11.53552329      11.53552329       0.00400243       0.01315578       0.01315578
Pu       4.61041269      -0.01603241      -0.01603241      -0.00138349      -0.00524366      -0.00524366
Pu       6.91778284       2.31362094      -0.00214685      -0.00565138      -0.00166714      -0.00031526
Pu       6.91778284      -0.00214685       2.31362094      -0.00565138      -0.00031526      -0.00166714
Pu       4.56751184       2.30072309       2.30072309      -0.01310349      -0.00513583      -0.00513583
Pu       4.70115353      -0.01860858       4.70115353      -0.00104250       0.00306965      -0.00104250
Pu       6.94822898       2.31917546       4.62814609      -0.00250591      -0.00040618      -0.00213786
Pu       6.96008263      -0.00600100       6.96008263      -0.00042208      -0.00043524      -0.00042208
Pu       4.62814609       2.31917546       6.94822898      -0.00213786      -0.00040618      -0.00250591
Pu       4.63206726      -0.00977611       9.25117000      -0.00100043      -0.00203536      -0.00279686
Pu       6.95979301       2.31715002       9.25017489      -0.00080294      -0.00154041      -0.00018734
Pu       6.95658457      -0.00983669      11.57363716       0.00052063      -0.00222705      -0.00171788
Pu       4.70252420       2.32086288      11.51118728      -0.00130811      -0.01098430       0.00297109
Pu       4.70115353       4.70115353      -0.01860858      -0.00104250      -0.00104250       0.00306965
Pu       6.96008263       6.96008263      -0.00600100      -0.00042208      -0.00042208      -0.00043524
Pu       6.94822898       4.62814609       2.31917546      -0.00250591      -0.00213786      -0.00040618
Pu       4.62814609       6.94822898       2.31917546      -0.00213786      -0.00250591      -0.00040618
Pu       4.61699316       4.61699316       4.61699316      -0.00253205      -0.00253205      -0.00253205
Pu       6.94362183       6.94362183       4.63428979      -0.00105117      -0.00105117      -0.00130469
Pu       6.94362183       4.63428979       6.94362183      -0.00105117      -0.00130469      -0.00105117
Pu       4.63428979       6.94362183       6.94362183      -0.00130469      -0.00105117      -0.00105117
Pu       4.64537895       4.64537895       9.24641926      -0.00343916      -0.00343916       0.00398473
Pu       6.95249739       6.95249739       9.25648813      -0.00141580      -0.00141580      -0.00018565
Pu       6.96522367       4.64670084      11.56189236      -0.00358528      -0.00245488       0.00056234
Pu       4.64670084       6.96522367      11.56189236      -0.00245488      -0.00358528       0.00056234
Pu       4.63206726       9.25117000      -0.00977611      -0.00100043      -0.00279686      -0.00203536
Pu       6.95658457      11.57363716      -0.00983669       0.00052063      -0.00171788      -0.00222705
Pu       6.95979301       9.25017489       2.31715002      -0.00080294      -0.00018734      -0.00154041
Pu       4.70252420      11.51118728       2.32086288      -0.00130811       0.00297109      -0.01098430
Pu       4.64537895       9.24641926       4.64537895      -0.00343916       0.00398473      -0.00343916
Pu       6.96522367      11.56189236       4.64670084      -0.00358528       0.00056234      -0.00245488
Pu       6.95249739       9.25648813       6.95249739      -0.00141580      -0.00018565      -0.00141580
Pu       4.64670084      11.56189236       6.96522367      -0.00245488       0.00056234      -0.00358528
Pu       4.63501543       9.26381876       9.26381876      -0.00108162      -0.00087043      -0.00087043
Pu       6.94789128      11.57362757       9.26381400       0.00050945      -0.00066994      -0.00071171
Pu       6.94789128       9.26381400      11.57362757       0.00050945      -0.00071171      -0.00066994
Pu       4.62890255      11.57976421      11.57976421       0.00089015      -0.00276561      -0.00276561
Pu       9.26868986       0.00217448       0.00217448      -0.00572971       0.00115409       0.00115409
Pu      11.60771110       2.31316650      -0.01862088       0.00068416      -0.00182158      -0.00565320
Pu      11.60771110      -0.01862088       2.31316650       0.00068416      -0.00565320      -0.00182158
Pu       9.27553210       2.31431509       2.31431509      -0.00399775      -0.00142247      -0.00142247
Pu       9.25117000      -0.00977611       4.63206726      -0.00279686      -0.00203536      -0.00100043
Pu      11.51118728       2.32086288       4.70252420       0.00297109      -0.01098430      -0.00130811
Pu      11.57363716      -0.00983669       6.95658457      -0.00171788      -0.00222705       0.00052063
Pu       9.25017489       2.31715002       6.95979301      -0.00018734      -0.00154041      -0.00080294
Pu       9.25576678      -0.00693993       9.25576678       0.00220723      -0.00046765       0.00220723
Pu      11.57951571       2.31544436       9.25756466       0.00051909      -0.00179341      -0.00018955
Pu      11.53552329      -0.02502617      11.53552329       0.01315578       0.00400243       0.01315578
Pu       9.25756466       2.31544436      11.57951571      -0.00018955      -0.00179341       0.00051909
Pu       9.25117000       4.63206726      -0.00977611      -0.00279686      -0.00100043      -0.00203536
Pu      11.57363716       6.95658457      -0.00983669      -0.00171788       0.00052063      -0.00222705
Pu      11.51118728       4.70252420       2.32086288       0.00297109      -0.00130811      -0.01098430
Pu       9.25017489       6.95979301       2.31715002      -0.00018734      -0.00080294      -0.00154041
Pu       9.24641926       4.64537895       4.64537895       0.00398473      -0.00343916      -0.00343916
Pu      11.56189236       6.96522367       4.64670084       0.00056234      -0.00358528      -0.00245488
Pu      11.56189236       4.64670084       6.96522367       0.00056234      -0.00245488      -0.00358528
Pu       9.25648813       6.95249739       6.95249739      -0.00018565      -0.00141580      -0.00141580
Pu       9.26381876       4.63501543       9.26381876      -0.00087043      -0.00108162      -0.00087043
Pu      11.57362757       6.94789128       9.26381400      -0.00066994       0.00050945      -0.00071171
Pu      11.57976421       4.62890255      11.57976421      -0.00276561       0.00089015      -0.00276561
Pu       9.26381400       6.94789128      11.57362757      -0.00071171       0.00050945      -0.00066994
Pu       9.25576678       9.25576678      -0.00693993       0.00220723       0.00220723      -0.00046765
Pu      11.53552329      11.53552329      -0.02502617       0.01315578       0.01315578       0.00400243
Pu      11.57951571       9.25756466       2.31544436       0.00051909      -0.00018955      -0.00179341
Pu       9.25756466      11.57951571       2.31544436      -0.00018955       0.00051909      -0.00179341
Pu       9.26381876       9.26381876       4.63501543      -0.00087043      -0.00087043      -0.00108162
Pu      11.57976421      11.57976421       4.62890255      -0.00276561      -0.00276561       0.00089015
Pu      11.57362757       9.26381400       6.94789128      -0.00066994      -0.00071171       0.00050945
Pu       9.26381400      11.57362757       6.94789128      -0.00071171      -0.00066994       0.00050945
Pu       9.25831064       9.25831064       9.25831064       0.00067955       0.00067955       0.00067955
Pu      11.56583555      11.56583555       9.24800244       0.00278122       0.00278122       0.00472480
Pu      11.56583555       9.24800244      11.56583555       0.00278122       0.00472480       0.00278122
Pu       9.24800244      11.56583555      11.56583555       0.00472480       0.00278122       0.00278122
Pu       1.36706851       1.36706851       1.36706851       0.08364856       0.08364856       0.08364856
109
Lattice="13.89768440882287 1.7e-15 1.2e-15 1.7e-15 13.89768440882286 1.9e-15 1.2e-15 1.9e-15 13.897684408822562" Properties=species:S:1:pos:R:3:forces:R:3 energy=-1669.9888003109684 pbc="T T T"
Pu      -0.21133681      -0.21133681      -0.21133681       0.04171671       0.04171671       0.04171671
Pu       2.65278344       2.65278344      -0.38041108       0.01046787       0.01046787      -0.02796089
Pu       2.65278344      -0.38041108       2.65278344       0.01046787      -0.02796089       0.01046787
Pu      -0.38041108       2.65278344       2.65278344      -0.02796089       0.01046787       0.01046787
Pu      -0.00983914      -0.00983914       4.61227628      -0.00289178      -0.00289178       0.00268362
Pu       2.30676157       2.30676157       4.58260602      -0.00473671      -0.00473671      -0.00938363
Pu       2.31580916      -0.00162477       6.92456319      -0.00041761      -0.00021983      -0.00230106
Pu      -0.00162477       2.31580916       6.92456319      -0.00021983      -0.00041761      -0.00230106
Pu       0.00097870       0.00097870       9.27549099       0.00078987       0.00078987      -0.00295630
Pu       2.31616322       2.31616322       9.28040433      -0.00039210      -0.00039210      -0.00076895
Pu       2.31542785      -0.01199378      11.60719748      -0.00141604      -0.00395149       0.00026816
Pu      -0.01199378       2.31542785      11.60719748      -0.00395149      -0.00141604       0.00026816
Pu      -0.00983914       4.61227628      -0.00983914      -0.00289178       0.00268362      -0.00289178
Pu       2.31580916       6.92456319      -0.00162477      -0.00041761      -0.00230106      -0.00021983
Pu       2.30676157       4.58260602       2.30676157      -0.00473671      -0.00938363      -0.00473671
Pu      -0.00162477       6.92456319       2.31580916      -0.00021983      -0.00230106      -0.00041761
Pu      -0.02191846       4.70250379       4.70250379       0.00217142      -0.00082504      -0.00082504
Pu       2.31978629       6.95129289       4.63078198      -0.00028903      -0.00158031      -0.00158250
Pu       2.31978629       4.63078198       6.95129289      -0.00028903      -0.00158250      -0.00158031
Pu      -0.00534304       6.96076727       6.96076727      -0.00012074      -0.00045148      -0.00045148
Pu      -0.00722763       4.63344097       9.25464778      -0.00103778      -0.00055844      -0.00128301
Pu       2.31918484       6.96092227       9.25054680      -0.00066630      -0.00036817      -0.00044914
Pu       2.33383228       4.70427985      11.50783222      -0.00374390      -0.00021832      -0.00035260
Pu      -0.00703121       6.95625050      11.57578732      -0.00094762       0.00038620      -0.00127478
Pu       0.00097870       9.27549099       0.00097870       0.00078987      -0.00295630       0.00078987
Pu       2.31542785      11.60719748      -0.01199378      -0.00141604       0.00026816      -0.00395149
Pu       2.31616322       9.28040433       2.31616322      -0.00039210      -0.00076895      -0.00039210
Pu      -0.01199378      11.60719748       2.31542785      -0.00395149       0.00026816      -0.00141604
Pu      -0.00722763       9.25464778       4.63344097      -0.00103778      -0.00128301      -0.00055844
Pu       2.33383228      11.50783222       4.70427985      -0.00374390      -0.00035260      -0.00021832
Pu       2.31918484       9.25054680       6.96092227      -0.00066630      -0.00044914      -0.00036817
Pu      -0.00703121      11.57578732       6.95625050      -0.00094762      -0.00127478       0.00038620
Pu      -0.00614433       9.25334944       9.25334944      -0.00048487       0.00061015       0.00061015
Pu       2.31773589      11.57903184       9.25798764      -0.00117845       0.00007476       0.00005682
Pu       2.31773589       9.25798764      11.57903184      -0.00117845       0.00005682       0.00007476
Pu      -0.02967307      11.52038919      11.52038919      -0.00144770       0.00450785       0.00450785
Pu       4.61227628      -0.00983914      -0.00983914       0.00268362      -0.00289178      -0.00289178
Pu       6.92456319       2.31580916      -0.00162477      -0.00230106      -0.00041761      -0.00021983
Pu       6.92456319      -0.00162477       2.31580916      -0.00230106      -0.00021983      -0.00041761
Pu       4.58260602       2.30676157       2.30676157      -0.00938363      -0.00473671      -0.00473671
Pu       4.70250379      -0.02191846       4.70250379      -0.00082504       0.00217142      -0.00082504
Pu       6.95129289       2.31978629       4.63078198      -0.00158031      -0.00028903      -0.00158250
Pu       6.96076727      -0.00534304       6.96076727      -0.00045148      -0.00012074      -0.00045148
Pu       4.63078198       2.31978629       6.95129289      -0.00158250      -0.00028903      -0.00158031
Pu       4.63344097      -0.00722763       9.25464778      -0.00055844      -0.00103778      -0.00128301
Pu       6.96092227       2.31918484       9.25054680      -0.00036817      -0.00066630      -0.00044914
Pu       6.95625050      -0.00703121      11.57578732       0.00038620      -0.00094762      -0.00127478
Pu       4.70427985       2.33383228      11.50783222      -0.00021832      -0.00374390      -0.00035260
Pu       4.70250379       4.70250379      -0.02191846      -0.00082504      -0.00082504       0.00217142
Pu       6.96076727       6.96076727      -0.00534304      -0.00045148      -0.00045148      -0.00012074
Pu       6.95129289       4.63078198       2.31978629      -0.00158031      -0.00158250      -0.00028903
Pu       4.63078198       6.95129289       2.31978629      -0.00158250      -0.00158031      -0.00028903
Pu       4.61997587       4.61997587       4.61997587      -0.00277297      -0.00277297      -0.00277297
Pu       6.94503161       6.94503161       4.63601880      -0.00090197      -0.00090197      -0.00076904
Pu       6.94503161       4.63601880       6.94503161      -0.00090197      -0.00076904      -0.00090197
Pu       4.63601880       6.94503161       6.94503161      -0.00076904      -0.00090197      -0.00090197
Pu       4.64959618       4.64959618       9.24191300      -0.00111884      -0.00111884       0.00071723
Pu       6.95430983       6.95430983       9.25686853      -0.00075694      -0.00075694      -0.00032616
Pu       6.96965052       4.64982862      11.56137798      -0.00146016      -0.00102541       0.00007064
Pu       4.64982862       6.96965052      11.56137798      -0.00102541      -0.00146016       0.00007064
Pu       4.63344097       9.25464778      -0.00722763      -0.00055844      -0.00128301      -0.00103778
Pu       6.95625050      11.57578732      -0.00703121       0.00038620      -0.00127478      -0.00094762
Pu       6.96092227       9.25054680       2.31918484      -0.00036817      -0.00044914      -0.00066630
Pu       4.70427985      11.50783222       2.33383228      -0.00021832      -0.00035260      -0.00374390
Pu       4.64959618       9.24191300       4.64959618      -0.00111884       0.00071723      -0.00111884
Pu       6.96965052      11.56137798       4.64982862      -0.00146016       0.00007064      -0.00102541
Pu       6.95430983       9.25686853       6.95430983      -0.00075694      -0.00032616      -0.00075694
Pu       4.64982862      11.56137798       6.96965052      -0.00102541       0.00007064      -0.00146016
Pu       4.63649303       9.26500732       9.26500732      -0.00061759      -0.00048883      -0.00048883
Pu       6.94745707      11.57459352       9.26484190      -0.00005169      -0.00044395      -0.00061833
Pu       6.94745707       9.26484190      11.57459352      -0.00005169      -0.00061833      -0.00044395
Pu       4.62814357      11.58321062      11.58321062       0.00057468      -0.00133941      -0.00133941
Pu       9.27549099       0.00097870       0.00097870      -0.00295630       0.00078987       0.00078987
Pu      11.60719748       2.31542785      -0.01199378       0.00026816      -0.00141604      -0.00395149
Pu      11.60719748      -0.01199378       2.31542785       0.00026816      -0.00395149      -0.00141604
Pu       9.28040433       2.31616322       2.31616322      -0.00076895      -0.00039210      -0.00039210
Pu       9.25464778      -0.00722763       4.63344097      -0.00128301      -0.00103778      -0.00055844
Pu      11.50783222       2.33383228       4.70427985      -0.00035260      -0.00374390      -0.00021832
Pu      11.57578732      -0.00703121       6.95625050      -0.00127478      -0.00094762       0.00038620
Pu       9.25054680       2.31918484       6.96092227      -0.00044914      -0.00066630      -0.00036817
Pu       9.25334944      -0.00614433       9.25334944       0.00061015      -0.00048487       0.00061015
Pu      11.57903184       2.31773589       9.25798764       0.00007476      -0.00117845       0.00005682
Pu      11.52038919      -0.02967307      11.52038919       0.00450785      -0.00144770       0.00450785
Pu       9.25798764       2.31773589      11.57903184       0.00005682      -0.00117845       0.00007476
Pu       9.25464778       4.63344097      -0.00722763      -0.00128301      -0.00055844      -0.00103778
Pu      11.57578732       6.95625050      -0.00703121      -0.00127478       0.00038620      -0.00094762
Pu      11.50783222       4.70427985       2.33383228      -0.00035260      -0.00021832      -0.00374390
Pu       9.25054680       6.96092227       2.31918484      -0.00044914      -0.00036817      -0.00066630
Pu       9.24191300       4.64959618       4.64959618       0.00071723      -0.00111884      -0.00111884
Pu      11.56137798       6.96965052       4.64982862       0.00007064      -0.00146016      -0.00102541
Pu      11.56137798       4.64982862       6.96965052       0.00007064      -0.00102541      -0.00146016
Pu       9.25686853       6.95430983       6.95430983      -0.00032616      -0.00075694      -0.00075694
Pu       9.26500732       4.63649303       9.26500732      -0.00048883      -0.00061759      -0.00048883
Pu      11.57459352       6.94745707       9.26484190      -0.00044395      -0.00005169      -0.00061833
Pu      11.58321062       4.62814357      11.58321062      -0.00133941       0.00057468      -0.00133941
Pu       9.26484190       6.94745707      11.57459352      -0.00061833      -0.00005169      -0.00044395
Pu       9.25334944       9.25334944      -0.00614433       0.00061015       0.00061015      -0.00048487
Pu      11.52038919      11.52038919      -0.02967307       0.00450785       0.00450785      -0.00144770
Pu      11.57903184       9.25798764       2.31773589       0.00007476       0.00005682      -0.00117845
Pu       9.25798764      11.57903184       2.31773589       0.00005682       0.00007476      -0.00117845
Pu       9.26500732       9.26500732       4.63649303      -0.00048883      -0.00048883      -0.00061759
Pu      11.58321062      11.58321062       4.62814357      -0.00133941      -0.00133941       0.00057468
Pu      11.57459352       9.26484190       6.94745707      -0.00044395      -0.00061833      -0.00005169
Pu       9.26484190      11.57459352       6.94745707      -0.00061833      -0.00044395      -0.00005169
Pu       9.25767621       9.25767621       9.25767621      -0.00013266      -0.00013266      -0.00013266
Pu      11.56274663      11.56274663       9.24263024       0.00043774       0.00043774       0.00071778
Pu      11.56274663       9.24263024      11.56274663       0.00043774       0.00071778       0.00043774
Pu       9.24263024      11.56274663      11.56274663       0.00071778       0.00043774       0.00043774
Pu       1.27110782       1.27110782       1.27110782       0.04649795       0.04649795       0.04649795
109
Lattice="13.89768440882287 1.7e-15 1.2e-15 1.7e-15 13.89768440882286 1.9e-15 1.2e-15 1.9e-15 13.897684408822562" Properties=species:S:1:pos:R:3:forces:R:3 energy=-1669.9703149187885 pbc="T T T"
Pu      -0.31528369      -0.31528369      -0.31528369      -0.00160234      -0.00160234      -0.00160234
Pu       2.62714949       2.62714949      -0.30983155      -0.00024662      -0.00024662       0.00091166
Pu       2.62714949      -0.30983155       2.62714949      -0.00024662       0.00091166      -0.00024662
Pu      -0.30983155       2.62714949       2.62714949       0.00091166      -0.00024662      -0.00024662
Pu      -0.00224275      -0.00224275       4.60633171       0.00009976       0.00009976      -0.00027244
Pu       2.31899733       2.31899733       4.60724379       0.00018361       0.00018361      -0.00003662
Pu       2.31727286      -0.00090647       6.93098468      -0.00001846      -0.00002142       0.00006702
Pu      -0.00090647       2.31727286       6.93098468      -0.00002142      -0.00001846       0.00006702
Pu      -0.00095619      -0.00095619       9.28322488       0.00000442       0.00000442       0.00007025
Pu       2.31733278       2.31733278       9.28296209      -0.00001480      -0.00001480       0.00005250
Pu       2.31897951      -0.00200145      11.60699209       0.00009247       0.00018206      -0.00011967
Pu      -0.00200145       2.31897951      11.60699209       0.00018206       0.00009247      -0.00011967
Pu      -0.00224275       4.60633171      -0.00224275       0.00009976      -0.00027244       0.00009976
Pu       2.31727286       6.93098468      -0.00090647      -0.00001846       0.00006702      -0.00002142
Pu       2.31899733       4.60724379       2.31899733       0.00018361      -0.00003662       0.00018361
Pu      -0.00090647       6.93098468       2.31727286      -0.00002142       0.00006702      -0.00001846
Pu      -0.02722658       4.70505807       4.70505807      -0.00001921      -0.00002576      -0.00002576
Pu       2.32074753       6.95572331       4.63507602       0.00003006       0.00005459       0.00009210
Pu       2.32074753       4.63507602       6.95572331       0.00003006       0.00009210       0.00005459
Pu      -0.00479136       6.96215653       6.96215653       0.00003161       0.00001707       0.00001707
Pu      -0.00433440       4.63508261       9.25835257       0.00003853      -0.00000083       0.00003759
Pu       2.32118741       6.96214539       9.25191401       0.00001481       0.00000285       0.00001740
Pu       2.34365111       4.70509636      11.50897875       0.00008205      -0.00000991       0.00005251
Pu      -0.00435268       6.95565310      11.57913164       0.00003903      -0.00003977       0.00006937
Pu      -0.00095619       9.28322488      -0.00095619       0.00000442       0.00007025       0.00000442
Pu       2.31897951      11.60699209      -0.00200145       0.00009247      -0.00011967       0.00018206
Pu       2.31733278       9.28296209       2.31733278      -0.00001480       0.00005250      -0.00001480
Pu      -0.00200145      11.60699209       2.31897951       0.00018206      -0.00011967       0.00009247
Pu      -0.00433440       9.25835257       4.63508261       0.00003853       0.00003759      -0.00000083
Pu       2.34365111      11.50897875       4.70509636       0.00008205       0.00005251      -0.00000991
Pu       2.32118741       9.25191401       6.96214539       0.00001481       0.00001740       0.00000285
Pu      -0.00435268      11.57913164       6.95565310       0.00003903       0.00006937      -0.00003977
Pu      -0.00469819       9.25192231       9.25192231      -0.00000230      -0.00001044      -0.00001044
Pu       2.32088160      11.57901337       9.25827028       0.00004255       0.00004216      -0.00001937
Pu       2.32088160       9.25827028      11.57901337       0.00004255      -0.00001937       0.00004216
Pu      -0.02653704      11.50887035      11.50887035       0.00028556      -0.00000126      -0.00000126
Pu       4.60633171      -0.00224275      -0.00224275      -0.00027244       0.00009976       0.00009976
Pu       6.93098468       2.31727286      -0.00090647       0.00006702      -0.00001846      -0.00002142
Pu       6.93098468      -0.00090647       2.31727286       0.00006702      -0.00002142      -0.00001846
Pu       4.60724379       2.31899733       2.31899733      -0.00003662       0.00018361       0.00018361
Pu       4.70505807      -0.02722658       4.70505807      -0.00002576      -0.00001921      -0.00002576
Pu       6.95572331       2.32074753       4.63507602       0.00005459       0.00003006       0.00009210
Pu       6.96215653      -0.00479136       6.96215653       0.00001707       0.00003161       0.00001707
Pu       4.63507602       2.32074753       6.95572331       0.00009210       0.00003006       0.00005459
Pu       4.63508261      -0.00433440       9.25835257      -0.00000083       0.00003853       0.00003759
Pu       6.96214539       2.32118741       9.25191401       0.00000285       0.00001481       0.00001740
Pu       6.95565310      -0.00435268      11.57913164      -0.00003977       0.00003903       0.00006937
Pu       4.70509636       2.34365111      11.50897875      -0.00000991       0.00008205       0.00005251
Pu       4.70505807       4.70505807      -0.02722658      -0.00002576      -0.00002576      -0.00001921
Pu       6.96215653       6.96215653      -0.00479136       0.00001707       0.00001707       0.00003161
Pu       6.95572331       4.63507602       2.32074753       0.00005459       0.00009210       0.00003006
Pu       4.63507602       6.95572331       2.32074753       0.00009210       0.00005459       0.00003006
Pu       4.62719970       4.62719970       4.62719970       0.00009594       0.00009594       0.00009594
Pu       6.94758192       6.94758192       4.63820744       0.00001864       0.00001864      -0.00000622
Pu       6.94758192       4.63820744       6.94758192       0.00001864      -0.00000622       0.00001864
Pu       4.63820744       6.94758192       6.94758192      -0.00000622       0.00001864       0.00001864
Pu       4.65270271       4.65270271       9.24034414       0.00001710       0.00001710       0.00000128
Pu       6.95628780       6.95628780       9.25786822       0.00001283       0.00001283       0.00001211
Pu       6.97370315       4.65271836      11.56139034       0.00002149       0.00000469       0.00002006
Pu       4.65271836       6.97370315      11.56139034       0.00000469       0.00002149       0.00002006
Pu       4.63508261       9.25835257      -0.00433440      -0.00000083       0.00003759       0.00003853
Pu       6.95565310      11.57913164      -0.00435268      -0.00003977       0.00006937       0.00003903
Pu       6.96214539       9.25191401       2.32118741       0.00000285       0.00001740       0.00001481
Pu       4.70509636      11.50897875       2.34365111      -0.00000991       0.00005251       0.00008205
Pu       4.65270271       9.24034414       4.65270271       0.00001710       0.00000128       0.00001710
Pu       6.97370315      11.56139034       4.65271836       0.00002149       0.00002006       0.00000469
Pu       6.95628780       9.25786822       6.95628780       0.00001283       0.00001211       0.00001283
Pu       4.65271836      11.56139034       6.97370315       0.00000469       0.00002006       0.00002149
Pu       4.63822565       9.26651266       9.26651266       0.00001278       0.00002693       0.00002693
Pu       6.94760934      11.57593693       9.26658088       0.00000411       0.00002687       0.00002967
Pu       6.94760934       9.26658088      11.57593693       0.00000411       0.00002967       0.00002687
Pu       4.62705213      11.58700022      11.58700022      -0.00002264       0.00003562       0.00003562
Pu       9.28322488      -0.00095619      -0.00095619       0.00007025       0.00000442       0.00000442
Pu      11.60699209       2.31897951      -0.00200145      -0.00011967       0.00009247       0.00018206
Pu      11.60699209      -0.00200145       2.31897951      -0.00011967       0.00018206       0.00009247
Pu       9.28296209       2.31733278       2.31733278       0.00005250      -0.00001480      -0.00001480
Pu       9.25835257      -0.00433440       4.63508261       0.00003759       0.00003853      -0.00000083
Pu      11.50897875       2.34365111       4.70509636       0.00005251       0.00008205      -0.00000991
Pu      11.57913164      -0.00435268       6.95565310       0.00006937       0.00003903      -0.00003977
Pu       9.25191401       2.32118741       6.96214539       0.00001740       0.00001481       0.00000285
Pu       9.25192231      -0.00469819       9.25192231      -0.00001044      -0.00000230      -0.00001044
Pu      11.57901337       2.32088160       9.25827028       0.00004216       0.00004255      -0.00001937
Pu      11.50887035      -0.02653704      11.50887035      -0.00000126       0.00028556      -0.00000126
Pu       9.25827028       2.32088160      11.57901337      -0.00001937       0.00004255       0.00004216
Pu       9.25835257       4.63508261      -0.00433440       0.00003759      -0.00000083       0.00003853
Pu      11.57913164       6.95565310      -0.00435268       0.00006937      -0.00003977       0.00003903
Pu      11.50897875       4.70509636       2.34365111       0.00005251      -0.00000991       0.00008205
Pu       9.25191401       6.96214539       2.32118741       0.00001740       0.00000285       0.00001481
Pu       9.24034414       4.65270271       4.65270271       0.00000128       0.00001710       0.00001710
Pu      11.56139034       6.97370315       4.65271836       0.00002006       0.00002149       0.00000469
Pu      11.56139034       4.65271836       6.97370315       0.00002006       0.00000469       0.00002149
Pu       9.25786822       6.95628780       6.95628780       0.00001211       0.00001283       0.00001283
Pu       9.26651266       4.63822565       9.26651266       0.00002693       0.00001278       0.00002693
Pu      11.57593693       6.94760934       9.26658088       0.00002687       0.00000411       0.00002967
Pu      11.58700022       4.62705213      11.58700022       0.00003562      -0.00002264       0.00003562
Pu       9.26658088       6.94760934      11.57593693       0.00002967       0.00000411       0.00002687
Pu       9.25192231       9.25192231      -0.00469819      -0.00001044      -0.00001044      -0.00000230
Pu      11.50887035      11.50887035      -0.02653704      -0.00000126      -0.00000126       0.00028556
Pu      11.57901337       9.25827028       2.32088160       0.00004216      -0.00001937       0.00004255
Pu       9.25827028      11.57901337       2.32088160      -0.00001937       0.00004216       0.00004255
Pu       9.26651266       9.26651266       4.63822565       0.00002693       0.00002693       0.00001278
Pu      11.58700022      11.58700022       4.62705213       0.00003562       0.00003562      -0.00002264
Pu      11.57593693       9.26658088       6.94760934       0.00002687       0.00002967       0.00000411
Pu       9.26658088      11.57593693       6.94760934       0.00002967       0.00002687       0.00000411
Pu       9.25794304       9.25794304       9.25794304       0.00001592       0.00001592       0.00001592
Pu      11.56153390      11.56153390       9.24058964       0.00001190       0.00001190       0.00007211
Pu      11.56153390       9.24058964      11.56153390       0.00001190       0.00007211       0.00001190
Pu       9.24058964      11.56153390      11.56153390       0.00007211       0.00001190       0.00001190
Pu       1.15467724       1.15467724       1.15467724      -0.00152714      -0.00152714      -0.00152714
109
Lattice="13.89768440882287 1.7e-15 1.2e-15 1.7e-15 13.89768440882286 1.9e-15 1.2e-15 1.9e-15 13.897684408822562" Properties=species:S:1:pos:R:3:forces:R:3 energy=-1669.9702937643701 stress="-0.0014219291058832552 -5.672670174031277e-15 -5.094585965666337e-15 -5.672670174031277e-15 -0.0014219291058816556 -4.171808461280689e-15 -5.094585965666337e-15 -4.171808461280689e-15 -0.001421929105883503" pbc="T T T"
Pu      -0.31172070      -0.31172070      -0.31172070      -0.00001286      -0.00001286      -0.00001286
Pu       2.62800143       2.62800143      -0.31172070       0.00001286       0.00001286      -0.00001286
Pu       2.62800143      -0.31172070       2.62800143       0.00001286      -0.00001286       0.00001286
Pu      -0.31172070       2.62800143       2.62800143      -0.00001286       0.00001286       0.00001286
Pu      -0.00241902      -0.00241902       4.60687617       0.00001190       0.00001190       0.00000014
Pu       2.31869975       2.31869975       4.60687617      -0.00001190      -0.00001190       0.00000014
Pu       2.31725393      -0.00097319       6.93091673      -0.00000942       0.00000942      -0.00000444
Pu      -0.00097319       2.31725393       6.93091673       0.00000942      -0.00000942      -0.00000444
Pu      -0.00097319      -0.00097319       9.28304841       0.00000942       0.00000942       0.00000444
Pu       2.31725393       2.31725393       9.28304841      -0.00000942      -0.00000942       0.00000444
Pu       2.31869975      -0.00241902      11.60708898      -0.00001190       0.00001190      -0.00000014
Pu      -0.00241902       2.31869975      11.60708898       0.00001190      -0.00001190      -0.00000014
Pu      -0.00241902       4.60687617      -0.00241902       0.00001190       0.00000014       0.00001190
Pu       2.31725393       6.93091673      -0.00097319      -0.00000942      -0.00000444       0.00000942
Pu       2.31869975       4.60687617       2.31869975      -0.00001190       0.00000014      -0.00001190
Pu      -0.00097319       6.93091673       2.31725393       0.00000942      -0.00000444      -0.00000942
Pu      -0.02711466       4.70506304       4.70506304      -0.00001938      -0.00003662      -0.00003662
Pu       2.32072204       6.95566744       4.63498604       0.00000261       0.00001882      -0.00000491
Pu       2.32072204       4.63498604       6.95566744       0.00000261      -0.00000491       0.00001882
Pu      -0.00482308       6.96209440       6.96209440      -0.00000358       0.00002209       0.00002209
Pu      -0.00444131       4.63498604       9.25829770      -0.00000261      -0.00000491      -0.00001882
Pu       2.32110382       6.96209440       9.25187075       0.00000358       0.00002209      -0.00002209
Pu       2.34339539       4.70506304      11.50890210       0.00001938      -0.00003662       0.00003662
Pu      -0.00444131       6.95566744      11.57897911      -0.00000261       0.00001882       0.00000491
Pu      -0.00097319       9.28304841      -0.00097319       0.00000942       0.00000444       0.00000942
Pu       2.31869975      11.60708898      -0.00241902      -0.00001190      -0.00000014       0.00001190
Pu       2.31725393       9.28304841       2.31725393      -0.00000942       0.00000444      -0.00000942
Pu      -0.00241902      11.60708898       2.31869975       0.00001190      -0.00000014      -0.00001190
Pu      -0.00444131       9.25829770       4.63498604      -0.00000261      -0.00001882      -0.00000491
Pu       2.34339539      11.50890210       4.70506304       0.00001938       0.00003662      -0.00003662
Pu       2.32110382       9.25187075       6.96209440       0.00000358      -0.00002209       0.00002209
Pu      -0.00444131      11.57897911       6.95566744      -0.00000261       0.00000491       0.00001882
Pu      -0.00482308       9.25187075       9.25187075      -0.00000358      -0.00002209      -0.00002209
Pu       2.32072204      11.57897911       9.25829770       0.00000261       0.00000491      -0.00001882
Pu       2.32072204       9.25829770      11.57897911       0.00000261      -0.00001882       0.00000491
Pu      -0.02711466      11.50890210      11.50890210      -0.00001938       0.00003662       0.00003662
Pu       4.60687617      -0.00241902      -0.00241902       0.00000014       0.00001190       0.00001190
Pu       6.93091673       2.31725393      -0.00097319      -0.00000444      -0.00000942       0.00000942
Pu       6.93091673      -0.00097319       2.31725393      -0.00000444       0.00000942      -0.00000942
Pu       4.60687617       2.31869975       2.31869975       0.00000014      -0.00001190      -0.00001190
Pu       4.70506304      -0.02711466       4.70506304      -0.00003662      -0.00001938      -0.00003662
Pu       6.95566744       2.32072204       4.63498604       0.00001882       0.00000261      -0.00000491
Pu       6.96209440      -0.00482308       6.96209440       0.00002209      -0.00000358       0.00002209
Pu       4.63498604       2.32072204       6.95566744      -0.00000491       0.00000261       0.00001882
Pu       4.63498604      -0.00444131       9.25829770      -0.00000491      -0.00000261      -0.00001882
Pu       6.96209440       2.32110382       9.25187075       0.00002209       0.00000358      -0.00002209
Pu       6.95566744      -0.00444131      11.57897911       0.00001882      -0.00000261       0.00000491
Pu       4.70506304       2.34339539      11.50890210      -0.00003662       0.00001938       0.00003662
Pu       4.70506304       4.70506304      -0.02711466      -0.00003662      -0.00003662      -0.00001938
Pu       6.96209440       6.96209440      -0.00482308       0.00002209       0.00002209      -0.00000358
Pu       6.95566744       4.63498604       2.32072204       0.00001882      -0.00000491       0.00000261
Pu       4.63498604       6.95566744       2.32072204      -0.00000491       0.00001882       0.00000261
Pu       4.62705338       4.62705338       4.62705338      -0.00000282      -0.00000282      -0.00000282
Pu       6.94751530       6.94751530       4.63813359      -0.00002484      -0.00002484      -0.00004641
Pu       6.94751530       4.63813359       6.94751530      -0.00002484      -0.00004641      -0.00002484
Pu       4.63813359       6.94751530       6.94751530      -0.00004641      -0.00002484      -0.00002484
Pu       4.65259990       4.65259990       9.24036744       0.00001578       0.00001578       0.00000345
Pu       6.95617480       6.95617480       9.25779034      -0.00001412      -0.00001412       0.00001412
Pu       6.97359771       4.65259990      11.56136524      -0.00000345       0.00001578      -0.00001578
Pu       4.65259990       6.97359771      11.56136524       0.00001578      -0.00000345      -0.00001578
Pu       4.63498604       9.25829770      -0.00444131      -0.00000491      -0.00001882      -0.00000261
Pu       6.95566744      11.57897911      -0.00444131       0.00001882       0.00000491      -0.00000261
Pu       6.96209440       9.25187075       2.32110382       0.00002209      -0.00002209       0.00000358
Pu       4.70506304      11.50890210       2.34339539      -0.00003662       0.00003662       0.00001938
Pu       4.65259990       9.24036744       4.65259990       0.00001578       0.00000345       0.00001578
Pu       6.97359771      11.56136524       4.65259990      -0.00000345      -0.00001578       0.00001578
Pu       6.95617480       9.25779034       6.95617480      -0.00001412       0.00001412      -0.00001412
Pu       4.65259990      11.56136524       6.97359771       0.00001578      -0.00001578      -0.00000345
Pu       4.63813359       9.26644984       9.26644984      -0.00004641       0.00002484       0.00002484
Pu       6.94751530      11.57583156       9.26644984      -0.00002484       0.00004641       0.00002484
Pu       6.94751530       9.26644984      11.57583156      -0.00002484       0.00002484       0.00004641
Pu       4.62705338      11.58691177      11.58691177      -0.00000282       0.00000282       0.00000282
Pu       9.28304841      -0.00097319      -0.00097319       0.00000444       0.00000942       0.00000942
Pu      11.60708898       2.31869975      -0.00241902      -0.00000014      -0.00001190       0.00001190
Pu      11.60708898      -0.00241902       2.31869975      -0.00000014       0.00001190      -0.00001190
Pu       9.28304841       2.31725393       2.31725393       0.00000444      -0.00000942      -0.00000942
Pu       9.25829770      -0.00444131       4.63498604      -0.00001882      -0.00000261      -0.00000491
Pu      11.50890210       2.34339539       4.70506304       0.00003662       0.00001938      -0.00003662
Pu      11.57897911      -0.00444131       6.95566744       0.00000491      -0.00000261       0.00001882
Pu       9.25187075       2.32110382       6.96209440      -0.00002209       0.00000358       0.00002209
Pu       9.25187075      -0.00482308       9.25187075      -0.00002209      -0.00000358      -0.00002209
Pu      11.57897911       2.32072204       9.25829770       0.00000491       0.00000261      -0.00001882
Pu      11.50890210      -0.02711466      11.50890210       0.00003662      -0.00001938       0.00003662
Pu       9.25829770       2.32072204      11.57897911      -0.00001882       0.00000261       0.00000491
Pu       9.25829770       4.63498604      -0.00444131      -0.00001882      -0.00000491      -0.00000261
Pu      11.57897911       6.95566744      -0.00444131       0.00000491       0.00001882      -0.00000261
Pu      11.50890210       4.70506304       2.34339539       0.00003662      -0.00003662       0.00001938
Pu       9.25187075       6.96209440       2.32110382      -0.00002209       0.00002209       0.00000358
Pu       9.24036744       4.65259990       4.65259990       0.00000345       0.00001578       0.00001578
Pu      11.56136524       6.97359771       4.65259990      -0.00001578      -0.00000345       0.00001578
Pu      11.56136524       4.65259990       6.97359771      -0.00001578       0.00001578      -0.00000345
Pu       9.25779034       6.95617480       6.95617480       0.00001412      -0.00001412      -0.00001412
Pu       9.26644984       4.63813359       9.26644984       0.00002484      -0.00004641       0.00002484
Pu      11.57583156       6.94751530       9.26644984       0.00004641      -0.00002484       0.00002484
Pu      11.58691177       4.62705338      11.58691177       0.00000282      -0.00000282       0.00000282
Pu       9.26644984       6.94751530      11.57583156       0.00002484      -0.00002484       0.00004641
Pu       9.25187075       9.25187075      -0.00482308      -0.00002209      -0.00002209      -0.00000358
Pu      11.50890210      11.50890210      -0.02711466       0.00003662       0.00003662      -0.00001938
Pu      11.57897911       9.25829770       2.32072204       0.00000491      -0.00001882       0.00000261
Pu       9.25829770      11.57897911       2.32072204      -0.00001882       0.00000491       0.00000261
Pu       9.26644984       9.26644984       4.63813359       0.00002484       0.00002484      -0.00004641
Pu      11.58691177      11.58691177       4.62705338       0.00000282       0.00000282      -0.00000282
Pu      11.57583156       9.26644984       6.94751530       0.00004641       0.00002484      -0.00002484
Pu       9.26644984      11.57583156       6.94751530       0.00002484       0.00004641      -0.00002484
Pu       9.25779034       9.25779034       9.25779034       0.00001412       0.00001412       0.00001412
Pu      11.56136524      11.56136524       9.24036744      -0.00001578      -0.00001578       0.00000345
Pu      11.56136524       9.24036744      11.56136524      -0.00001578       0.00000345      -0.00001578
Pu       9.24036744      11.56136524      11.56136524       0.00000345      -0.00001578      -0.00001578
Pu       1.15814037       1.15814037       1.15814037       0.00000000       0.00000000       0.00000000
